LAMMPS (22 Jul 2025 - Update 3)
OMP_NUM_THREADS environment is not set. Defaulting to 1 thread.
  using 1 OpenMP thread(s) per MPI task
# ------------------------------------------------------------------
# 1. INITIALIZATION
# ------------------------------------------------------------------
units           metal          # eV and Angstroms (Matches Deng/Du paper)
atom_style      charge
boundary        p p p
read_data       BorosilicateSupercellTemplateV3.data
Reading data file ...
  orthogonal box = (0 0 0) to (37.8 37.8 37.8)
  2 by 2 by 5 MPI processor grid
  reading atom labelmap ...
  reading atoms ...
  4185 atoms
  read_data CPU = 0.018 seconds

# ------------------------------------------------------------------
# 2. ASSIGN CHARGES (From Deng & Du 2016)
# ------------------------------------------------------------------
# 1=Si, 2=O, 3=B, 4=Na, 5=Al

set type 1 charge  1.890   # Si
Setting atom values ...
  1026 settings made for charge
set type 2 charge -0.945   # O
Setting atom values ...
  2673 settings made for charge
set type 3 charge  1.418   # B
Setting atom values ...
  324 settings made for charge
set type 4 charge  0.473   # Na
Setting atom values ...
  108 settings made for charge
set type 5 charge  1.418   # Al
Setting atom values ...
  54 settings made for charge

# ------------------------------------------------------------------
# 3. FIX DENSITY & OVERLAPS (The Soft Ramp Method)
# ------------------------------------------------------------------

# A. DEFINE SOFT POTENTIAL
# Start with a "Soft" potential with cutoff 2.5 Angstroms
pair_style      soft 2.5
pair_coeff      * * 0.0 2.5   # Start with Energy A = 0.0 (Ghost atoms)

# B. RAMP REPULSION
# We ramp the pre-factor 'A' from 0.0 to 100.0 eV.
# This slowly "inflates" the atoms, pushing overlapping ones apart gently.
variable        prefactor equal ramp(0.0,100.0)
fix             1 all adapt 1 pair soft a * * v_prefactor

# C. INITIALIZE VELOCITIES
velocity        all create 300.0 12345 dist gaussian
timestep        0.001
thermo          100

print "--- STARTING SOFT RAMP ---"
--- STARTING SOFT RAMP ---

# D. Run with NVE to let them push apart
fix             2 all nve
run             10000

CITE-CITE-CITE-CITE-CITE-CITE-CITE-CITE-CITE-CITE-CITE-CITE-CITE

Your simulation uses code contributions which should be cited:

- Type Label Framework: https://doi.org/10.1021/acs.jpcb.3c08419

@Article{Gissinger24,
 author = {Jacob R. Gissinger, Ilia Nikiforov, Yaser Afshar, Brendon Waters, Moon-ki Choi, Daniel S. Karls, Alexander Stukowski, Wonpil Im, Hendrik Heinz, Axel Kohlmeyer, and Ellad B. Tadmor},
 title = {Type Label Framework for Bonded Force Fields in LAMMPS},
 journal = {J. Phys. Chem. B},
 year =    2024,
 volume =  128,
 number =  13,
 pages =   {3282--3297}
}

CITE-CITE-CITE-CITE-CITE-CITE-CITE-CITE-CITE-CITE-CITE-CITE-CITE

Generated 0 of 10 mixed pair_coeff terms from geometric mixing rule
Neighbor list info ...
  update: every = 1 steps, delay = 0 steps, check = yes
  max neighbors/atom: 2000, page size: 100000
  master list distance cutoff = 4.5
  ghost atom cutoff = 4.5
  binsize = 2.25, bins = 17 17 17
  1 neighbor lists, perpetual/occasional/extra = 1 0 0
  (1) pair soft, perpetual
      attributes: half, newton on
      pair build: half/bin/atomonly/newton
      stencil: half/bin/3d
      bin: standard
Per MPI rank memory allocation (min/avg/max) = 3.218 | 3.223 | 3.228 Mbytes
   Step          Temp          E_pair         E_mol          TotEng         Press     
         0   300            0              0              162.24733      3208.642     
       100   2214.476       1204.1214      0              2401.7642      107145.38    
       200   3131.3151      1713.6102      0              3407.102       187912.89    
       300   3877.8113      2078.0842      0              4175.2994      256804.74    
       400   4433.6964      2422.3274      0              4820.1788      322560.34    
       500   4991.5414      2692.6118      0              5392.1594      383635.46    
       600   5363.2923      3007.8672      0              5908.4668      441878.69    
       700   5824.4093      3237.7938      0              6387.7768      501071.15    
       800   6277.469       3433.9117      0              6828.9204      546703.62    
       900   6683.427       3632.6782      0              7247.2389      602299       
      1000   7013.2174      3852.9195      0              7645.839       652375.05    
      1100   7195.4523      4131.024       0              8022.5006      702661.23    
      1200   7655.7397      4243.9814      0              8384.3926      753850.93    
      1300   7966.2342      4423.6591      0              8731.9932      796929.67    
      1400   8284.4941      4584.1904      0              9064.6473      844258.15    
      1500   8537.5065      4769.7226      0              9387.0148      892431.32    
      1600   8818.1541      4930.631       0              9699.7044      944311.09    
      1700   9127.6976      5064.2898      0              10000.772      977890.38    
      1800   9342.7977      5240.6276      0              10293.441      1027873.4    
      1900   9653.4349      5359.7919      0              10580.605      1067635.4    
      2000   9858.076       5528.2692      0              10859.758      1114308.7    
      2100   10146.39       5645.6633      0              11133.079      1152899.6    
      2200   10447.125      5749.1645      0              11399.225      1190432.8    
      2300   10600.79       5922.587       0              11655.753      1234043.9    
      2400   11003.918      5959.5276      0              11910.715      1252830      
      2500   11280.051      6057.4819      0              12158.009      1303056.1    
      2600   11475.551      6193.7413      0              12400          1344311.7    
      2700   11644.577      6341.2308      0              12638.903      1383471      
      2800   11709.995      6537.2181      0              12870.27       1427457.5    
      2900   11909.801      6660.8383      0              13101.95       1469408.7    
      3000   12086.789      6791.6898      0              13328.521      1513628.4    
      3100   12392.258      6851.2764      0              13553.313      1549400.9    
      3200   12786.69       6857.6434      0              13772.998      1568338.4    
      3300   12776.478      7081.6118      0              13991.444      1610483      
      3400   13177.902      7075.5316      0              14202.463      1642494.9    
      3500   13098.002      7333.9547      0              14417.675      1681087.5    
      3600   13403.065      7379.4706      0              14628.176      1712370      
      3700   13696.738      7426.6401      0              14834.171      1753992.2    
      3800   13757.97       7601.0929      0              15041.74       1789928.8    
      3900   13886.522      7734.0239      0              15244.194      1845998.3    
      4000   14310.153      7706.1298      0              15445.41       1854466.7    
      4100   14255.084      7935.4054      0              15644.903      1912408.4    
      4200   14390.285      8064.2503      0              15846.868      1929859      
      4300   14548.999      8171.7782      0              16040.232      1973745.2    
      4400   14892.276      8175.7656      0              16229.872      2003985      
      4500   14955.358      8331.4736      0              16419.697      2021422.5    
      4600   15255.65       8349.8296      0              16600.458      2084385.1    
      4700   15332.076      8501.413       0              16793.375      2111289.8    
      4800   15780.698      8437.0707      0              16971.658      2130661.5    
      4900   15571.655      8732.2909      0              17153.822      2170232.1    
      5000   15594.426      8891.4623      0              17325.309      2220259.3    
      5100   15984.676      8865.3593      0              17510.263      2237015.2    
      5200   16043.773      9009.7198      0              17686.584      2277750.3    
      5300   16511.422      8932.186       0              17861.967      2282145.4    
      5400   16681.097      9017.7432      0              18039.288      2320315.4    
      5500   16652.958      9212.372       0              18218.699      2375880.2    
      5600   17313.536      9039.2405      0              18402.824      2377840.8    
      5700   16967.58       9392.9898      0              18569.472      2433274.8    
      5800   17376.633      9352.6966      0              18750.405      2449506.1    
      5900   17475.38       9475.1794      0              18926.292      2481901.8    
      6000   17349.991      9721.7829      0              19105.082      2530759.8    
      6100   17744.737      9691.0125      0              19287.8        2563778.1    
      6200   17871.874      9783.6672      0              19449.213      2570568.7    
      6300   18045.516      9861.0903      0              19620.546      2622055.9    
      6400   18049.928      10026.673      0              19788.515      2649027.4    
      6500   18245.023      10097.528      0              19964.883      2681495.3    
      6600   18563.41       10094.2        0              20133.745      2706619      
      6700   18799.919      10133.283      0              20300.739      2742699.3    
      6800   18689.825      10348.369      0              20456.283      2774677.2    
      6900   19157.257      10269.457      0              20630.17       2790868      
      7000   19111.088      10475.838      0              20811.582      2842389.2    
      7100   19429.627      10468.789      0              20976.807      2857724.9    
      7200   19796.036      10441.676      0              21147.856      2881546.5    
      7300   19695.576      10674.432      0              21326.281      2930833.8    
      7400   19974.194      10687.773      0              21490.305      2950802.6    
      7500   20082.646      10793.69       0              21654.876      2977606.1    
      7600   20102.372      10958.986      0              21830.84       3027882.8    
      7700   20553.221      10880.343      0              21996.027      3067711.1    
      7800   20501.038      11086.907      0              22174.37       3074409.4    
      7900   20513.389      11259.7        0              22353.843      3095154.1    
      8000   20908.27       11214.752      0              22522.455      3140586.3    
      8100   21065.829      11317.17       0              22710.085      3181330.8    
      8200   21026.727      11498.067      0              22869.835      3208743.4    
      8300   21074.606      11643.982      0              23041.644      3244287.6    
      8400   21220.555      11740.798      0              23217.393      3293304.1    
      8500   21728.428      11612.083      0              23363.348      3311392.3    
      8600   21838.951      11726.779      0              23537.817      3327051.5    
      8700   21821.157      11937.307      0              23738.722      3370802.3    
      8800   21751.98       12162.733      0              23926.735      3428774.6    
      8900   22462.335      11955.59       0              24103.77       3428892.3    
      9000   22559.032      12121.449      0              24321.925      3460849.1    
      9100   22911.489      12091.883      0              24482.976      3488769.6    
      9200   22561.135      12464.327      0              24665.94       3522750.3    
      9300   22772.596      12538.151      0              24854.128      3554833.7    
      9400   23336.577      12411.131      0              25032.123      3575480.2    
      9500   23248.005      12647.126      0              25220.216      3606875.9    
      9600   23468.186      12716.261      0              25408.43       3654621.1    
      9700   23649.605      12795.097      0              25585.381      3680111.5    
      9800   23788.259      12933.66       0              25798.932      3732654.2    
      9900   23953.44       13015.675      0              25970.281      3754802.1    
     10000   23714.363      13363.08       0              26188.387      3805643.2    
Loop time of 1.22608 on 20 procs for 10000 steps with 4185 atoms

Performance: 704.687 ns/day, 0.034 hours/ns, 8156.096 timesteps/s, 34.133 Matom-step/s
99.2% CPU use with 20 MPI tasks x 1 OpenMP threads

MPI task timing breakdown:
Section |  min time  |  avg time  |  max time  |%varavg| %total
---------------------------------------------------------------
Pair    | 0.48244    | 0.49605    | 0.52144    |   1.3 | 40.46
Neigh   | 0.21495    | 0.22652    | 0.23379    |   1.3 | 18.47
Comm    | 0.34099    | 0.37158    | 0.40812    |   3.0 | 30.31
Output  | 0.0019232  | 0.0024535  | 0.010749   |   3.8 |  0.20
Modify  | 0.050771   | 0.05335    | 0.062089   |   1.0 |  4.35
Other   |            | 0.07613    |            |       |  6.21

Nlocal:         209.25 ave         217 max         197 min
Histogram: 1 0 3 1 1 0 2 8 1 3
Nghost:          791.8 ave         811 max         779 min
Histogram: 2 3 3 3 2 4 1 1 0 1
Neighs:         2907.4 ave        3081 max        2707 min
Histogram: 2 0 3 1 2 1 5 3 2 1

Total # of neighbors = 58148
Ave neighs/atom = 13.894385
Neighbor list builds = 1063
Dangerous builds = 0
unfix           1
unfix           2

print "--- SOFT RAMP COMPLETE ---"
--- SOFT RAMP COMPLETE ---

# ------------------------------------------------------------------
# 2. REAL POTENTIAL (Buckingham)
# ------------------------------------------------------------------

# Set Buckingham Potential back from Soft
pair_style      buck/coul/long 10.0
kspace_style    pppm 1.0e-4

# (Deng & Du Parameters)
pair_coeff 1 2  45296.72   0.161   46.1395
pair_coeff 4 2  120360.22  0.170    0.0000
pair_coeff 2 2   9027.03   0.265   85.0321
pair_coeff 5 2  28287.00   0.172   34.7600
pair_coeff 3 2  197810.14  0.1245  35.0020
pair_coeff 5 5    351.94   0.360    0.0000
pair_coeff 5 4    175.21   0.130    0.0000
pair_coeff 5 1    646.67   0.120    0.0000
pair_coeff 5 3    137.58   0.479    0.0000
pair_coeff 1 1    834.40   0.290    0.0000
pair_coeff 1 3    337.70   0.290    0.0000
pair_coeff 3 3    121.10   0.350    0.0000
pair_coeff 4 4      0.00   1.000    0.0000
pair_coeff 1 4      0.00   1.000    0.0000
pair_coeff 3 4      0.00   1.000    0.0000

# Safety minimization
minimize 1.0e-4 1.0e-6 100 1000
PPPM initialization ...
WARNING: System is not charge neutral, net charge = 0.243
For more information see https://docs.lammps.org/err0029 (src/kspace.cpp:330)
  using 12-bit tables for long-range coulomb
  G vector (1/distance) = 0.29010492
  grid = 27 27 27
  stencil order = 5
  estimated absolute RMS force accuracy = 0.0012949152
  estimated relative force accuracy = 8.9926881e-05
  using double precision KISS FFT
  3d grid and FFT values/proc = 4800 1176
Generated 0 of 10 mixed pair_coeff terms from geometric mixing rule
Neighbor list info ...
  update: every = 1 steps, delay = 0 steps, check = yes
  max neighbors/atom: 2000, page size: 100000
  master list distance cutoff = 12
  ghost atom cutoff = 12
  binsize = 6, bins = 7 7 7
  1 neighbor lists, perpetual/occasional/extra = 1 0 0
  (1) pair buck/coul/long, perpetual
      attributes: half, newton on
      pair build: half/bin/atomonly/newton
      stencil: half/bin/3d
      bin: standard
Per MPI rank memory allocation (min/avg/max) = 5.181 | 5.201 | 5.215 Mbytes
   Step          Temp          E_pair         E_mol          TotEng         Press     
     10000   23714.363     -2846.3542      0              9978.9529      502544.66    
     10100   23714.363     -47251.109      0             -34425.802      215926.53    
Loop time of 0.348332 on 20 procs for 100 steps with 4185 atoms

99.3% CPU use with 20 MPI tasks x 1 OpenMP threads

Minimization stats:
  Stopping criterion = max iterations
  Energy initial, next-to-last, final = 
      -2846.3542124898  -47221.5455740954  -47251.1086802379
  Force two-norm initial, final = 1170.7769 56.587813
  Force max component initial, final = 46.06206 12.302219
  Final line search alpha, max atom move = 0.0099956459 0.12296863
  Iterations, force evaluations = 100 100

MPI task timing breakdown:
Section |  min time  |  avg time  |  max time  |%varavg| %total
---------------------------------------------------------------
Pair    | 0.21934    | 0.24012    | 0.2637     |   2.6 | 68.93
Kspace  | 0.062349   | 0.086312   | 0.10699    |   4.3 | 24.78
Neigh   | 0.008745   | 0.009277   | 0.0097934  |   0.3 |  2.66
Comm    | 0.0094969  | 0.0096114  | 0.0097262  |   0.1 |  2.76
Output  | 2.7786e-05 | 3.872e-05  | 0.00024117 |   0.0 |  0.01
Modify  | 0          | 0          | 0          |   0.0 |  0.00
Other   |            | 0.002975   |            |       |  0.85

Nlocal:         209.25 ave         220 max         200 min
Histogram: 2 1 3 2 2 1 5 2 1 1
Nghost:        4293.75 ave        4329 max        4262 min
Histogram: 2 1 2 2 5 2 2 2 1 1
Neighs:        58584.5 ave       62599 max       53513 min
Histogram: 2 1 0 4 1 2 2 5 0 3

Total # of neighbors = 1171690
Ave neighs/atom = 279.97372
Neighbor list builds = 5
Dangerous builds = 0
reset_timestep  0

# ------------------------------------------------------------------
# 5. MELT AND QUENCH PROTOCOL
# ------------------------------------------------------------------

# Output settings (Save log info every 1000 steps)
thermo          1000
thermo_style    custom step temp press vol density pe

# Define a trajectory file so you can watch simulation later
# Saves a snapshot every 5000 steps
dump            1 all custom 5000 evolution.lammpstrj id type x y z

# ==========================================================
#
# ==========================================================

# A. Relax at 300K (60ps)
print "--- RELAXING AT 300K FOR 60ps ---"
--- RELAXING AT 300K FOR 60ps ---
fix     1 all nvt temp 300.0 300.0 0.1
run     60000
PPPM initialization ...
  using 12-bit tables for long-range coulomb
  G vector (1/distance) = 0.29010492
  grid = 27 27 27
  stencil order = 5
  estimated absolute RMS force accuracy = 0.0012949152
  estimated relative force accuracy = 8.9926881e-05
  using double precision KISS FFT
  3d grid and FFT values/proc = 4800 1176
Generated 0 of 10 mixed pair_coeff terms from geometric mixing rule
Per MPI rank memory allocation (min/avg/max) = 4.057 | 4.076 | 4.09 Mbytes
   Step          Temp          Press          Volume        Density         PotEng    
         0   23714.363      215926.53      54010.152      2.4295966     -47251.109    
      1000   283.25892     -18625.418      54010.152      2.4295966     -48787.454    
      2000   313.24627     -20807.783      54010.152      2.4295966     -48843.127    
      3000   295.40033     -21692.476      54010.152      2.4295966     -48882.683    
      4000   300.16247     -20573.914      54010.152      2.4295966     -48891.786    
      5000   296.19415     -18232.985      54010.152      2.4295966     -48895.904    
      6000   291.92123     -18365.368      54010.152      2.4295966     -48910.195    
      7000   305.16974     -19762.846      54010.152      2.4295966     -48905.217    
      8000   294.56241     -21206.004      54010.152      2.4295966     -48915.5      
      9000   311.96156     -20724.722      54010.152      2.4295966     -48913.59     
     10000   300.58866     -20101.131      54010.152      2.4295966     -48917.581    
     11000   300.50054     -21518.979      54010.152      2.4295966     -48919.585    
     12000   301.65821     -17537.821      54010.152      2.4295966     -48918.12     
     13000   295.58429     -17852.752      54010.152      2.4295966     -48920.855    
     14000   300.94029     -19347.749      54010.152      2.4295966     -48917.498    
     15000   295.29194     -20776.435      54010.152      2.4295966     -48926.818    
     16000   308.26649     -18247.389      54010.152      2.4295966     -48918.645    
     17000   295.75506     -17383.121      54010.152      2.4295966     -48927.141    
     18000   305.9217      -18731.479      54010.152      2.4295966     -48922.172    
     19000   296.77271     -19561.344      54010.152      2.4295966     -48925.512    
     20000   304.22645     -19742.69       54010.152      2.4295966     -48923.018    
     21000   304.73838     -19655.78       54010.152      2.4295966     -48924.722    
     22000   294.11955     -18080.573      54010.152      2.4295966     -48925.94     
     23000   309.75812     -17395.276      54010.152      2.4295966     -48924.811    
     24000   295.1175      -19887.342      54010.152      2.4295966     -48927.97     
     25000   303.40166     -18623.816      54010.152      2.4295966     -48921.831    
     26000   297.30791     -19295.703      54010.152      2.4295966     -48927.41     
     27000   301.22575     -19387.35       54010.152      2.4295966     -48925.783    
     28000   301.66931     -19062.853      54010.152      2.4295966     -48923.297    
     29000   300.02099     -20164.099      54010.152      2.4295966     -48928.359    
     30000   301.78777     -19450.213      54010.152      2.4295966     -48921.865    
     31000   301.2248      -20463.878      54010.152      2.4295966     -48930.452    
     32000   303.55394     -18403.338      54010.152      2.4295966     -48924.914    
     33000   302.71722     -19173.461      54010.152      2.4295966     -48928.795    
     34000   296.5452      -20764.159      54010.152      2.4295966     -48924.381    
     35000   293.89531     -17871.809      54010.152      2.4295966     -48922.958    
     36000   298.84653     -17379.911      54010.152      2.4295966     -48925.688    
     37000   303.26891     -18892.84       54010.152      2.4295966     -48927.3      
     38000   293.61093     -19858.736      54010.152      2.4295966     -48924.975    
     39000   301.55779     -19370.422      54010.152      2.4295966     -48926.716    
     40000   291.99246     -16518.63       54010.152      2.4295966     -48925.983    
     41000   310.50584     -19527.801      54010.152      2.4295966     -48929.572    
     42000   294.84734     -20601.573      54010.152      2.4295966     -48929.04     
     43000   296.2053      -17088.951      54010.152      2.4295966     -48929.91     
     44000   304.31886     -16875.477      54010.152      2.4295966     -48932.12     
     45000   299.35409     -19444.293      54010.152      2.4295966     -48931.434    
     46000   296.18489     -18580.566      54010.152      2.4295966     -48929.609    
     47000   300.89156     -19363.213      54010.152      2.4295966     -48931.651    
     48000   303.63943     -17741.248      54010.152      2.4295966     -48934.495    
     49000   298.81842     -19969.184      54010.152      2.4295966     -48929.789    
     50000   300.89353     -19669.426      54010.152      2.4295966     -48936.325    
     51000   309.55094     -20036.973      54010.152      2.4295966     -48935.197    
     52000   300.91391     -18785.544      54010.152      2.4295966     -48933.445    
     53000   297.10271     -17541.902      54010.152      2.4295966     -48933.884    
     54000   303.16478     -19716.735      54010.152      2.4295966     -48933.328    
     55000   296.40135     -20247.442      54010.152      2.4295966     -48934.376    
     56000   302.42221     -18604.185      54010.152      2.4295966     -48933.506    
     57000   297.82774     -20005.528      54010.152      2.4295966     -48934.131    
     58000   301.09503     -19830.939      54010.152      2.4295966     -48934.502    
     59000   302.6171      -20339.356      54010.152      2.4295966     -48936.013    
     60000   297.52111     -19500.252      54010.152      2.4295966     -48931.31     
Loop time of 155.87 on 20 procs for 60000 steps with 4185 atoms

Performance: 33.259 ns/day, 0.722 hours/ns, 384.937 timesteps/s, 1.611 Matom-step/s
99.6% CPU use with 20 MPI tasks x 1 OpenMP threads

MPI task timing breakdown:
Section |  min time  |  avg time  |  max time  |%varavg| %total
---------------------------------------------------------------
Pair    | 89.777     | 101.28     | 114.05     |  60.2 | 64.98
Kspace  | 34.079     | 46.752     | 58.132     |  88.4 | 29.99
Neigh   | 1.0214     | 1.1261     | 1.22       |   4.5 |  0.72
Comm    | 5.3165     | 5.7107     | 6.0195     |   7.9 |  3.66
Output  | 0.0095315  | 0.011381   | 0.020393   |   2.1 |  0.01
Modify  | 0.46964    | 0.51352    | 0.56511    |   3.7 |  0.33
Other   |            | 0.4766     |            |       |  0.31

Nlocal:         209.25 ave         226 max         196 min
Histogram: 3 1 3 3 2 2 2 1 1 2
Nghost:        4281.15 ave        4327 max        4229 min
Histogram: 2 0 3 1 2 3 3 4 0 2
Neighs:        58592.6 ave       66635 max       51019 min
Histogram: 1 0 3 4 5 2 2 1 0 2

Total # of neighbors = 1171851
Ave neighs/atom = 280.01219
Neighbor list builds = 622
Dangerous builds = 0
unfix   1

# B. Melt from 300K to 6000K (60ps)
print "--- HEATING TO 6000K ---"
--- HEATING TO 6000K ---
fix     1 all nvt temp 300.0 6000.0 0.1
run     60000
PPPM initialization ...
  using 12-bit tables for long-range coulomb
  G vector (1/distance) = 0.29010492
  grid = 27 27 27
  stencil order = 5
  estimated absolute RMS force accuracy = 0.0012949152
  estimated relative force accuracy = 8.9926881e-05
  using double precision KISS FFT
  3d grid and FFT values/proc = 4800 1176
Generated 0 of 10 mixed pair_coeff terms from geometric mixing rule
Per MPI rank memory allocation (min/avg/max) = 5.315 | 5.335 | 5.349 Mbytes
   Step          Temp          Press          Volume        Density         PotEng    
     60000   297.52111     -19500.252      54010.152      2.4295966     -48931.31     
     61000   384.47381     -20044.838      54010.152      2.4295966     -48887.475    
     62000   477.13058     -18417.645      54010.152      2.4295966     -48828.352    
     63000   578.07337     -16963.374      54010.152      2.4295966     -48782.337    
     64000   672.42574     -13133.679      54010.152      2.4295966     -48728.456    
     65000   771.78453     -10892.706      54010.152      2.4295966     -48684.612    
     66000   870.81605     -12781.17       54010.152      2.4295966     -48637.697    
     67000   956.11321     -11792.546      54010.152      2.4295966     -48596.299    
     68000   1048.9536     -8314.2944      54010.152      2.4295966     -48543.304    
     69000   1139.1799     -5191.3347      54010.152      2.4295966     -48500.935    
     70000   1231.515      -1789.9394      54010.152      2.4295966     -48446.495    
     71000   1348.5576     -2634.6113      54010.152      2.4295966     -48404.771    
     72000   1428.7156     -257.8063       54010.152      2.4295966     -48354.046    
     73000   1531.4537      2238.597       54010.152      2.4295966     -48326.454    
     74000   1608.3079      175.56373      54010.152      2.4295966     -48253.698    
     75000   1729.7129      5795.1191      54010.152      2.4295966     -48217.047    
     76000   1805.966       3532.8794      54010.152      2.4295966     -48159.256    
     77000   1940.0126      5854.3891      54010.152      2.4295966     -48131.422    
     78000   1968.6692      9727.3949      54010.152      2.4295966     -48041.302    
     79000   2052.2107      2488.7592      54010.152      2.4295966     -48021.933    
     80000   2160.3569      11962.008      54010.152      2.4295966     -47977.603    
     81000   2282.9448      13952.332      54010.152      2.4295966     -47898.858    
     82000   2354.0949      12585.719      54010.152      2.4295966     -47826.973    
     83000   2474.4092      8663.2753      54010.152      2.4295966     -47785.478    
     84000   2570.3237      10045.012      54010.152      2.4295966     -47706.85     
     85000   2716.795       9111.1853      54010.152      2.4295966     -47667.949    
     86000   2812.7262      13408.151      54010.152      2.4295966     -47569.001    
     87000   2812.7908      8036.4865      54010.152      2.4295966     -47580.382    
     88000   2893.9112      15099.788      54010.152      2.4295966     -47445.35     
     89000   3113.984       17216.91       54010.152      2.4295966     -47402.936    
     90000   3114.5422      20662.541      54010.152      2.4295966     -47341.641    
     91000   3193.2575      20476.695      54010.152      2.4295966     -47190.565    
     92000   3301.7265      6805.4679      54010.152      2.4295966     -47095.932    
     93000   3463.8829      22442.524      54010.152      2.4295966     -46939.662    
     94000   3524.683       20484.145      54010.152      2.4295966     -46828.688    
     95000   3621.3628      23266.279      54010.152      2.4295966     -46736.857    
     96000   3630.8933      9412.161       54010.152      2.4295966     -46589.764    
     97000   3832.9129      22175.286      54010.152      2.4295966     -46548.207    
     98000   3931.8026      17016.222      54010.152      2.4295966     -46484.822    
     99000   3971.6897      26123.001      54010.152      2.4295966     -46378.761    
    100000   4109.8734      30592.478      54010.152      2.4295966     -46270.96     
    101000   4270.2793      38375.897      54010.152      2.4295966     -46167.461    
    102000   4347.5666      36318.644      54010.152      2.4295966     -46074.025    
    103000   4463.6909      33035.805      54010.152      2.4295966     -46000.282    
    104000   4458.5595      32799.463      54010.152      2.4295966     -45852.034    
    105000   4555.9148      41294.712      54010.152      2.4295966     -45813.868    
    106000   4644.0278      39287.109      54010.152      2.4295966     -45646.752    
    107000   4835.423       35745.894      54010.152      2.4295966     -45610.184    
    108000   4913.9519      33164.37       54010.152      2.4295966     -45535.222    
    109000   4911.0938      37857.879      54010.152      2.4295966     -45423.901    
    110000   5067.3457      44507.185      54010.152      2.4295966     -45371.884    
    111000   5075.1075      44525.314      54010.152      2.4295966     -45296.676    
    112000   5218.4446      46034.971      54010.152      2.4295966     -45211.569    
    113000   5310.615       46577.508      54010.152      2.4295966     -45125.418    
    114000   5424.5893      49255.663      54010.152      2.4295966     -45102.268    
    115000   5470.0777      44389.616      54010.152      2.4295966     -44960.531    
    116000   5597.5603      59097.452      54010.152      2.4295966     -44814.965    
    117000   5749.6602      54472.062      54010.152      2.4295966     -44798.082    
    118000   5787.1569      56451.552      54010.152      2.4295966     -44663.647    
    119000   5952.541       57639.221      54010.152      2.4295966     -44708.759    
    120000   5983.8648      62676.651      54010.152      2.4295966     -44497.094    
Loop time of 161.41 on 20 procs for 60000 steps with 4185 atoms

Performance: 32.117 ns/day, 0.747 hours/ns, 371.725 timesteps/s, 1.556 Matom-step/s
99.6% CPU use with 20 MPI tasks x 1 OpenMP threads

MPI task timing breakdown:
Section |  min time  |  avg time  |  max time  |%varavg| %total
---------------------------------------------------------------
Pair    | 95.111     | 103.21     | 111.78     |  43.2 | 63.94
Kspace  | 37.704     | 46.247     | 54.149     |  65.0 | 28.65
Neigh   | 4.7287     | 4.9329     | 5.2405     |   5.8 |  3.06
Comm    | 5.7138     | 6.0126     | 6.289      |   6.0 |  3.73
Output  | 0.0096759  | 0.011493   | 0.019995   |   1.9 |  0.01
Modify  | 0.46544    | 0.51065    | 0.55394    |   3.2 |  0.32
Other   |            | 0.4817     |            |       |  0.30

Nlocal:         209.25 ave         224 max         197 min
Histogram: 2 2 4 0 2 4 2 3 0 1
Nghost:        4295.55 ave        4348 max        4242 min
Histogram: 1 0 3 2 3 6 1 2 1 1
Neighs:          58596 ave       64071 max       53496 min
Histogram: 2 1 1 4 2 4 3 2 0 1

Total # of neighbors = 1171920
Ave neighs/atom = 280.02867
Neighbor list builds = 2669
Dangerous builds = 0
unfix   1

# C. Relax at 5000K (100ps)
print "--- HOLDING AT 5000K ---"
--- HOLDING AT 5000K ---
fix     1 all nvt temp 6000.0 5000.0 0.1
run     100000
PPPM initialization ...
  using 12-bit tables for long-range coulomb
  G vector (1/distance) = 0.29010492
  grid = 27 27 27
  stencil order = 5
  estimated absolute RMS force accuracy = 0.0012949152
  estimated relative force accuracy = 8.9926881e-05
  using double precision KISS FFT
  3d grid and FFT values/proc = 4800 1176
Generated 0 of 10 mixed pair_coeff terms from geometric mixing rule
Per MPI rank memory allocation (min/avg/max) = 5.316 | 5.335 | 5.349 Mbytes
   Step          Temp          Press          Volume        Density         PotEng    
    120000   5983.8648      62676.651      54010.152      2.4295966     -44497.094    
    121000   5903.7589      59191.59       54010.152      2.4295966     -44537.776    
    122000   5882.6373      60717.115      54010.152      2.4295966     -44616.675    
    123000   5975.8855      62222.666      54010.152      2.4295966     -44599.232    
    124000   5993.3055      62323.639      54010.152      2.4295966     -44661.254    
    125000   6036.8997      58398.144      54010.152      2.4295966     -44580.933    
    126000   6057.839       62411.216      54010.152      2.4295966     -44704.333    
    127000   5955.4966      71600.726      54010.152      2.4295966     -44554.017    
    128000   5871.5939      53905.871      54010.152      2.4295966     -44670.495    
    129000   5913.2158      53936.807      54010.152      2.4295966     -44716.612    
    130000   5978.0162      68219.329      54010.152      2.4295966     -44688.83     
    131000   5865.0107      54408.805      54010.152      2.4295966     -44735.066    
    132000   5772.9393      53188.883      54010.152      2.4295966     -44624.423    
    133000   5860.5358      63768.792      54010.152      2.4295966     -44625.328    
    134000   5915.134       58525.98       54010.152      2.4295966     -44763.315    
    135000   5754.5594      54578.267      54010.152      2.4295966     -44694.401    
    136000   5851.0698      57526.678      54010.152      2.4295966     -44643.588    
    137000   5742.9701      57571.067      54010.152      2.4295966     -44705.581    
    138000   5804.0812      59644.549      54010.152      2.4295966     -44748.502    
    139000   5956.4332      60297.739      54010.152      2.4295966     -44756.811    
    140000   5796.0763      50896.461      54010.152      2.4295966     -44784.361    
    141000   5794.6697      59447.196      54010.152      2.4295966     -44771.479    
    142000   5750.6597      61677.838      54010.152      2.4295966     -44725.663    
    143000   5679.7714      56093.293      54010.152      2.4295966     -44755.722    
    144000   5867.3575      61996.039      54010.152      2.4295966     -44732.185    
    145000   5864.6542      64855.829      54010.152      2.4295966     -44758.235    
    146000   5816.3008      66492.589      54010.152      2.4295966     -44779.079    
    147000   5630.3983      60494.725      54010.152      2.4295966     -44889.615    
    148000   5751.4634      49546.802      54010.152      2.4295966     -44809.477    
    149000   5654.9772      65308.86       54010.152      2.4295966     -44863.375    
    150000   5603.6422      57928.791      54010.152      2.4295966     -44805.866    
    151000   5616.753       55332.28       54010.152      2.4295966     -44860.1      
    152000   5612.5194      54323.788      54010.152      2.4295966     -44755.05     
    153000   5728.3962      65080.899      54010.152      2.4295966     -44778.928    
    154000   5683.8579      54773.201      54010.152      2.4295966     -44841.321    
    155000   5609.8615      51982.444      54010.152      2.4295966     -44879.713    
    156000   5640.5339      55566.582      54010.152      2.4295966     -44811.764    
    157000   5735.3316      54807.992      54010.152      2.4295966     -44863.108    
    158000   5737.783       48852.969      54010.152      2.4295966     -44820.438    
    159000   5646.6872      59802.071      54010.152      2.4295966     -44863.967    
    160000   5664.9199      56466.949      54010.152      2.4295966     -44799.125    
    161000   5530.9674      50360.715      54010.152      2.4295966     -44938.612    
    162000   5639.5354      58936.53       54010.152      2.4295966     -44850.444    
    163000   5613.6451      52720.727      54010.152      2.4295966     -44904.241    
    164000   5542.1045      56689.216      54010.152      2.4295966     -44902.865    
    165000   5633.2955      64328.446      54010.152      2.4295966     -44940.811    
    166000   5559.7198      47582.1        54010.152      2.4295966     -44940.613    
    167000   5455.1426      51193.097      54010.152      2.4295966     -44947.547    
    168000   5525.0969      50852.158      54010.152      2.4295966     -44909.286    
    169000   5469.0225      58822.808      54010.152      2.4295966     -45016.052    
    170000   5548.6566      56634.569      54010.152      2.4295966     -44953.205    
    171000   5386.5943      53380.15       54010.152      2.4295966     -44989.719    
    172000   5493.131       49109.71       54010.152      2.4295966     -44983.558    
    173000   5521.4339      50656.135      54010.152      2.4295966     -44916.862    
    174000   5493.3391      55605.012      54010.152      2.4295966     -44944.002    
    175000   5469.8458      54059.552      54010.152      2.4295966     -45060.04     
    176000   5542.1151      51399.525      54010.152      2.4295966     -44949.439    
    177000   5469.4136      44016.573      54010.152      2.4295966     -45042.115    
    178000   5374.668       53888.964      54010.152      2.4295966     -45019.11     
    179000   5495.2763      47577.461      54010.152      2.4295966     -45099.063    
    180000   5471.61        47964.512      54010.152      2.4295966     -45055.143    
    181000   5399.8023      49153.467      54010.152      2.4295966     -45054.738    
    182000   5371.2047      46655.199      54010.152      2.4295966     -45028.718    
    183000   5423.6986      51688.665      54010.152      2.4295966     -44992.88     
    184000   5341.4093      49627.539      54010.152      2.4295966     -45081.862    
    185000   5392.4121      40481.852      54010.152      2.4295966     -45059.622    
    186000   5437.8505      54278.722      54010.152      2.4295966     -45067.29     
    187000   5319.9607      47445.059      54010.152      2.4295966     -45127.94     
    188000   5380.9302      47670.248      54010.152      2.4295966     -45131.474    
    189000   5283.1987      38662.062      54010.152      2.4295966     -45191.152    
    190000   5311.7511      41415.107      54010.152      2.4295966     -45099.67     
    191000   5262.295       43849.567      54010.152      2.4295966     -45200.793    
    192000   5231.3326      45982.652      54010.152      2.4295966     -45131.35     
    193000   5284.3184      41243.338      54010.152      2.4295966     -45144.501    
    194000   5419.0062      40671.147      54010.152      2.4295966     -45153.447    
    195000   5203.1829      55350.392      54010.152      2.4295966     -45064.805    
    196000   5276.1793      45103.443      54010.152      2.4295966     -45189.13     
    197000   5340.0536      47115.191      54010.152      2.4295966     -45053.104    
    198000   5218.8152      52146.99       54010.152      2.4295966     -45205.597    
    199000   5232.6323      49500.164      54010.152      2.4295966     -45252.419    
    200000   5203.8461      52798.575      54010.152      2.4295966     -45200.348    
    201000   5175.1495      46083.868      54010.152      2.4295966     -45158.605    
    202000   5081.0465      39667.646      54010.152      2.4295966     -45256.654    
    203000   5212.6788      48070.875      54010.152      2.4295966     -45249.576    
    204000   5086.8177      44147.708      54010.152      2.4295966     -45236.162    
    205000   5254.311       50263.183      54010.152      2.4295966     -45202.431    
    206000   5074.1645      46685.466      54010.152      2.4295966     -45212.981    
    207000   5173.4572      42706.339      54010.152      2.4295966     -45308.949    
    208000   5071.0424      43667.497      54010.152      2.4295966     -45282.425    
    209000   5031.3266      50513.684      54010.152      2.4295966     -45244.019    
    210000   5066.4447      39714.059      54010.152      2.4295966     -45261.302    
    211000   5087.0029      49090.563      54010.152      2.4295966     -45301.952    
    212000   5076.4721      42173.779      54010.152      2.4295966     -45407.893    
    213000   5089.7085      53986.188      54010.152      2.4295966     -45286.07     
    214000   5051.6964      36037.623      54010.152      2.4295966     -45315.285    
    215000   5017.7214      39222.62       54010.152      2.4295966     -45301.323    
    216000   4930.5277      38854.767      54010.152      2.4295966     -45389.641    
    217000   5161.8288      38934.363      54010.152      2.4295966     -45439.326    
    218000   4974.128       42787.359      54010.152      2.4295966     -45397.816    
    219000   5056.4541      38703.862      54010.152      2.4295966     -45313.244    
    220000   4960.5232      46927.259      54010.152      2.4295966     -45392.385    
Loop time of 278.12 on 20 procs for 100000 steps with 4185 atoms

Performance: 31.066 ns/day, 0.773 hours/ns, 359.556 timesteps/s, 1.505 Matom-step/s
99.6% CPU use with 20 MPI tasks x 1 OpenMP threads

MPI task timing breakdown:
Section |  min time  |  avg time  |  max time  |%varavg| %total
---------------------------------------------------------------
Pair    | 163.47     | 176.45     | 184.44     |  44.2 | 63.44
Kspace  | 68.939     | 77.071     | 90.472     |  68.2 | 27.71
Neigh   | 12.196     | 12.588     | 13.236     |   8.5 |  4.53
Comm    | 10.008     | 10.326     | 10.691     |   7.7 |  3.71
Output  | 0.017131   | 0.020297   | 0.038439   |   3.1 |  0.01
Modify  | 0.78072    | 0.85351    | 0.91976    |   4.4 |  0.31
Other   |            | 0.8152     |            |       |  0.29

Nlocal:         209.25 ave         235 max         189 min
Histogram: 1 2 3 3 3 3 3 1 0 1
Nghost:         4310.8 ave        4348 max        4263 min
Histogram: 1 0 2 3 1 6 1 1 2 3
Neighs:        58605.9 ave       69474 max       51918 min
Histogram: 2 3 3 5 2 1 1 2 0 1

Total # of neighbors = 1172118
Ave neighs/atom = 280.07599
Neighbor list builds = 6734
Dangerous builds = 0
unfix   1

# D. Cool to 300K from 5000K (5K/ps)
# Calculation: (5000K - 300K) / 5 K/ps = 940 ps
# 940 ps * 1000 steps/ps = 940,000 steps
print "--- COOLING AT 5 K/ps TO 300K ---"
--- COOLING AT 5 K/ps TO 300K ---
fix     2 all npt temp 5000.0 300.0 0.1 iso 0.0 0.0 1.0
run     940000
PPPM initialization ...
  using 12-bit tables for long-range coulomb
  G vector (1/distance) = 0.29010492
  grid = 27 27 27
  stencil order = 5
  estimated absolute RMS force accuracy = 0.0012949152
  estimated relative force accuracy = 8.9926881e-05
  using double precision KISS FFT
  3d grid and FFT values/proc = 4800 1176
Generated 0 of 10 mixed pair_coeff terms from geometric mixing rule
Per MPI rank memory allocation (min/avg/max) = 5.316 | 5.335 | 5.349 Mbytes
   Step          Temp          Press          Volume        Density         PotEng    
    220000   4960.5232      46927.259      54010.152      2.4295966     -45392.385    
    221000   5027.4325      5988.1692      62810.122      2.0891997     -45091.394    
    222000   5128.2297      2472.2491      67360.819      1.9480595     -45073.204    
    223000   5034.8263      3216.2943      69601.315      1.8853507     -44951.443    
    224000   4926.7851     -4614.4842      71700.14       1.8301622     -44863.739    
    225000   5017.273       733.48608      71818.546      1.8271448     -44937.379    
    226000   5090.1768      5325.8772      69714.592      1.8822872     -44999.319    
    227000   4910.365       1515.591       70887.471      1.8511435     -44934.648    
    228000   4952.7788     -649.739        71696.319      1.8302597     -44959.29     
    229000   4932.7553     -5812.2235      70033.28       1.8737218     -44931.068    
    230000   4878.3488     -1573.9421      71853.805      1.8262482     -44999.995    
    231000   4902.3674     -2848.9639      72620.32       1.806972      -44960.173    
    232000   5060.543       3459.1199      71300.295      1.8404255     -45084.452    
    233000   4933.0778      2649.0332      72051.145      1.8212463     -45017.809    
    234000   4978.5842     -2988.655       71480.881      1.835776      -44963.066    
    235000   4960.7712      3818.1185      72519.747      1.809478      -44983.104    
    236000   4980.8943     -179.38907      72676.579      1.8055732     -44933.725    
    237000   4890.6002      3036.359       70377.303      1.8645626     -44998.054    
    238000   4954.1117      1719.7757      71252.87       1.8416505     -44993.243    
    239000   4941.3276     -1472.3565      73089.265      1.7953783     -44878.445    
    240000   4948.9662      6363.5334      70217.455      1.8688072     -45044.604    
    241000   4910.4041      145.50272      71458.683      1.8363462     -44904.191    
    242000   4844.7268      5535.7425      71152.676      1.8442438     -44996.576    
    243000   4856.9981      3463.96        70927.469      1.8500996     -45047.625    
    244000   4974.1533     -1599.9864      71226.092      1.8423429     -44982.218    
    245000   4904.9228      1848.6938      71330.391      1.839649      -44995.856    
    246000   4747.5877     -4880.7224      73548.864      1.7841592     -44998.75     
    247000   4820.5916      3602.3462      71234.909      1.8421149     -44979.085    
    248000   4822.8969     -1193.9043      71545.8        1.8341102     -45069.566    
    249000   4924.7364     -273.74239      70924.459      1.8501782     -45075.51     
    250000   4843.8576      2610.1281      71994.01       1.8226917     -44998.641    
    251000   4792.1476     -3827.8831      71219.14       1.8425227     -45055.465    
    252000   4884.6884      2969.0143      70359.728      1.8650283     -45080.45     
    253000   4813.9845      5776.1014      68927.737      1.9037747     -45130.888    
    254000   4980.624      -1580.1674      72357.903      1.8135253     -45075.733    
    255000   4708.2737     -4421.5243      72190.973      1.8177187     -45112.358    
    256000   4817.8275     -4368.177       70553.035      1.8599183     -45096.904    
    257000   4775.3212      1132.3665      69047.574      1.9004706     -45122.706    
    258000   4798.1809     -607.48718      68678.304      1.910689      -45176.301    
    259000   4850.715       3987.2871      71431.868      1.8370356     -45087.149    
    260000   4792.0839     -3818.0475      71017.717      1.8477486     -45121.037    
    261000   4789.1498     -1975.9676      70099.676      1.8719471     -45156.57     
    262000   4735.0821     -534.51741      70371.971      1.8647038     -45182.764    
    263000   4715.0739     -100.05924      69822.259      1.8793847     -45077.953    
    264000   4822.073       2153.928       69164.929      1.897246      -45243.487    
    265000   4659.8887      755.93997      69483.712      1.8885417     -45171.004    
    266000   4690.3249     -377.1232       69345.719      1.8922997     -45191.252    
    267000   4806.6365     -1063.1381      68964.694      1.9027545     -45228.06     
    268000   4764.8808      3907.4945      71303.686      1.840338      -45068.177    
    269000   4774.294       5218.7371      69100.984      1.8990017     -45216.3      
    270000   4686.8112     -2126.7404      69224.611      1.8956103     -45176.219    
    271000   4732.7079      1704.4706      69962.646      1.8756135     -45130.516    
    272000   4700.6636      1360.5055      68362.065      1.9195278     -45275.333    
    273000   4697.119       5643.7772      68911.385      1.9042265     -45180.476    
    274000   4785.2005      1230.2574      68502          1.9156066     -45220.983    
    275000   4742.2619     -1483.9899      68310.405      1.9209794     -45255.599    
    276000   4695.2976      2670.2468      68939.357      1.9034539     -45283.903    
    277000   4641.2963     -2473.4136      68212.118      1.9237474     -45245.382    
    278000   4786.9146      2728.1897      67437.788      1.9458361     -45288.053    
    279000   4677.6304      4120.8488      68920.653      1.9039704     -45247.384    
    280000   4769.5758     -4249.9382      71082.714      1.846059      -45201.564    
    281000   4789.975       7604.7589      69314.454      1.8931532     -45273.992    
    282000   4655.9943     -7219.5627      70548.753      1.8600312     -45200.519    
    283000   4644.9656     -1087.8775      70042.364      1.8734788     -45250.445    
    284000   4668.9595      551.62127      68882.102      1.905036      -45286.044    
    285000   4693.9715      7623.6809      68918.086      1.9040413     -45390.127    
    286000   4681.5076     -635.56771      68696.682      1.9101779     -45274.503    
    287000   4687.0838     -792.28056      68514.466      1.9152581     -45398.683    
    288000   4714.2863     -39.838595      68465.488      1.9166282     -45305.316    
    289000   4525.8871     -1357.9072      67158.231      1.953936      -45347.75     
    290000   4703.1398      2066.7046      66033.668      1.9872118     -45274.432    
    291000   4671.3306      2698.7153      67306.328      1.9496366     -45310.234    
    292000   4531.0376      667.5433       68738.877      1.9090054     -45251.459    
    293000   4621.4138     -1528.7726      68156.636      1.9253134     -45399.075    
    294000   4682.4354      1502.567       67722.364      1.9376595     -45341.841    
    295000   4628.7779      5722.6761      67216.77       1.9522343     -45421.076    
    296000   4575.126       1748.4545      67169.868      1.9535975     -45500.28     
    297000   4688.0241     -86.428083      68114.92       1.9264925     -45333.847    
    298000   4576.5577     -1661.0458      68890.051      1.9048162     -45373.763    
    299000   4818.5117      1494.9323      68059.481      1.9280618     -45389.781    
    300000   4570.252       10044.427      67825.641      1.9347091     -45389.402    
    301000   4621.6487      2646.1347      69884.724      1.8777048     -45367.296    
    302000   4631.7737      944.59605      69462.975      1.8891055     -45359.556    
    303000   4559.5789     -1465.5181      68105.221      1.9267669     -45366.851    
    304000   4443.368      -1874.8391      68337.966      1.9202047     -45358.529    
    305000   4607.1694      142.53555      68137.174      1.9258633     -45446.755    
    306000   4571.0192      1562.8123      68981.424      1.9022931     -45316.094    
    307000   4542.7526     -2535.7423      67702.565      1.9382262     -45416.104    
    308000   4591.4724     -2631.5435      66832.241      1.9634668     -45435.449    
    309000   4494.3989     -3996.9256      68014.83       1.9293275     -45459.319    
    310000   4564.4392     -4878.8995      68165.33       1.9250678     -45458.548    
    311000   4596.4326     -247.89395      67751.207      1.9368346     -45471.858    
    312000   4639.3201     -3617.984       67116.331      1.9551558     -45453.466    
    313000   4478.6224     -651.95355      67568.552      1.9420704     -45385.377    
    314000   4504.8116      2206.3871      67286.266      1.950218      -45489.546    
    315000   4624.1114      196.9771       68512.416      1.9153154     -45549.545    
    316000   4447.3145     -4351.9713      68287.552      1.9216223     -45452.161    
    317000   4553.9757     -339.44177      66641.143      1.9690972     -45498.495    
    318000   4469.8366      6337.2113      67162.855      1.9538015     -45475.09     
    319000   4500.3654      432.9022       67733.443      1.9373426     -45490.191    
    320000   4503.9377      6536.3973      67534.779      1.9430416     -45516.637    
    321000   4545.6774     -1492.2351      67169.841      1.9535983     -45517.464    
    322000   4468.8808     -2939.149       69154.883      1.8975216     -45475.811    
    323000   4424.5268      430.37832      67712.874      1.9379311     -45557.017    
    324000   4498.8439      3360.7892      67793.015      1.9356402     -45551.807    
    325000   4581.9459     -1789.8298      67177.993      1.9533612     -45534.492    
    326000   4453.8461     -3360.2468      67586.451      1.9415561     -45553.745    
    327000   4516.8563     -5612.9151      67539.75       1.9428986     -45437.553    
    328000   4515.139      -873.54165      66715.985      1.9668882     -45538.342    
    329000   4510.7389     -4522.0606      67469.192      1.9449304     -45601.603    
    330000   4443.7359      1197.0592      66571.821      1.9711476     -45622.203    
    331000   4518.1895      6657.6386      66622.613      1.9696448     -45610.539    
    332000   4364.3566     -8277.8417      68287.128      1.9216343     -45541.439    
    333000   4401.0995      24.005581      67118.901      1.9550809     -45602.714    
    334000   4503.1621      5820.9884      66536.641      1.9721898     -45585.602    
    335000   4545.3961      4708.1612      66037.473      1.9870973     -45580.106    
    336000   4430.4332     -1097.9756      68153.466      1.9254029     -45591.111    
    337000   4401.2433     -987.50079      66274.499      1.9799906     -45623.597    
    338000   4419.4766      7101.8459      66940.715      1.9602851     -45618.949    
    339000   4483.1218      244.0175       67044.085      1.9572627     -45547.83     
    340000   4421.8936     -2635.716       67758.622      1.9366227     -45573.991    
    341000   4504.954      -3461.9899      66083.838      1.9857031     -45611.712    
    342000   4311.6434     -2380.3209      67778.281      1.936061      -45595.949    
    343000   4366.7607     -4788.139       67187.645      1.9530806     -45612.622    
    344000   4379.6128     -328.44512      66165.139      1.9832632     -45640.767    
    345000   4399.2087      3418.8036      64957.353      2.020139      -45703.428    
    346000   4411.2337      2500.6385      65839.926      1.9930594     -45634.642    
    347000   4414.1994      2298.1847      65800.352      1.9942581     -45717.33     
    348000   4484.1951     -1932.6027      65419.231      2.0058763     -45685.687    
    349000   4359.4379     -764.92956      67248.846      1.9513031     -45647.345    
    350000   4316.0813      224.90123      66452.412      1.9746896     -45627.812    
    351000   4281.1656     -364.02015      64361.458      2.0388426     -45742.643    
    352000   4338.9469      3035.9788      65324.391      2.0087885     -45754.834    
    353000   4415.6655      2359.5292      64610.252      2.0309917     -45697.897    
    354000   4317.0521      881.05651      64788.49       2.0254043     -45782.193    
    355000   4421.3783     -1386.3446      65218.9        2.0120377     -45776.833    
    356000   4351.8894     -4210.816       65437.909      2.0053037     -45802.155    
    357000   4304.2179      7033.2424      64231.681      2.042962      -45703.02     
    358000   4222.1304     -7344.1786      65567.162      2.0013507     -45725.801    
    359000   4227.7576     -1646.9911      64995.494      2.0189536     -45783.964    
    360000   4293.6912     -169.71485      66084.144      1.985694      -45729.123    
    361000   4354.3668      1519.6199      66560.286      1.9714892     -45789.949    
    362000   4271.1114      1595.5582      65192.834      2.0128421     -45792.799    
    363000   4387.625      -2248.0416      65232.264      2.0116255     -45813.517    
    364000   4218.9762     -2254.3074      65304.45       2.0094019     -45729.085    
    365000   4203.0334      3323.7714      65367.779      2.0074551     -45759.027    
    366000   4365.0439      2562.2396      63571.95       2.0641633     -45778.924    
    367000   4302.5097      170.71487      64506.365      2.0342626     -45797.81     
    368000   4271.8363      3012.8438      65583.241      2.00086       -45863.294    
    369000   4339.4671      7706.9147      63376.599      2.0705258     -45878.265    
    370000   4351.7316      520.62891      65218.458      2.0120513     -45791.751    
    371000   4267.9533     -2626.1394      65707.624      1.9970724     -45685.134    
    372000   4166.8556     -3103.2708      64474.127      2.0352797     -45767.69     
    373000   4191.8562      1773.4728      62803.947      2.089405      -45920.712    
    374000   4234.1319      1450.0924      64676.976      2.0288964     -45908.451    
    375000   4262.587      -3860.9803      64716.059      2.0276711     -45848.034    
    376000   4227.9648      1838.962       64983.944      2.0193124     -45820.098    
    377000   4190.4038      8743.332       63741.256      2.0586806     -45870.992    
    378000   4223.3496     -4380.6602      65375.958      2.007204      -45872.93     
    379000   4191.3039     -324.27511      63733.605      2.0589277     -45909.812    
    380000   4264.3187     -1011.194       65128.677      2.014825      -45805.877    
    381000   4228.4978      2478.8342      63416.991      2.069207      -45950.532    
    382000   4199.4158      5247.3828      64203.897      2.0438461     -45920.486    
    383000   4162.8292     -162.82967      64822.989      2.0243264     -45890.636    
    384000   4165.1285     -2612.4893      65101.563      2.0156641     -45948.112    
    385000   4193.1339      4361.5313      63244.732      2.0748429     -45873.342    
    386000   4101.9242     -1065.3931      65242.636      2.0113057     -45882.231    
    387000   4160.7892     -2221.7379      64299.333      2.0408125     -45901.427    
    388000   4181.7616     -1652.9558      64406.183      2.0374268     -45931.312    
    389000   4198.0592     -1531.6699      64252.059      2.0423141     -45938.768    
    390000   4160.1561     -2326.6909      63466.736      2.0675852     -45978.656    
    391000   4141.1622     -823.17803      63621.674      2.06255       -45937.884    
    392000   4104.2506      1313.2156      62705.484      2.0926859     -45904.467    
    393000   4097.082      -4139.2464      63005.018      2.082737      -46001.396    
    394000   4212.6916      305.01804      64082.3        2.0477243     -45963.418    
    395000   4121.8134      129.96117      64696.829      2.0282738     -45981.536    
    396000   4109.8852      4516.6432      63931.546      2.052553      -45968.633    
    397000   4102.9284      4360.8287      63724.856      2.0592104     -45971.821    
    398000   4110.7074     -1165.0242      64236.09       2.0428218     -45952.835    
    399000   4143.1632     -5668.3432      63621.414      2.0625584     -45959.5      
    400000   4119.0553      2472.134       63551.402      2.0648307     -46023.997    
    401000   4090.7608     -8981.1198      63520.913      2.0658218     -46047.306    
    402000   4103.9005      2317.4039      63047.359      2.0813383     -46041.043    
    403000   4110.8863     -3962.7456      63939.959      2.0522829     -46052.478    
    404000   4134.7864     -3295.9653      63948.636      2.0520044     -46027.846    
    405000   4172.1629      3990.7103      62276.2        2.1071113     -46020.752    
    406000   4026.895      -1497.1756      63621.531      2.0625547     -46059.273    
    407000   4023.0369     -7760.6163      62980.413      2.0835507     -46062.106    
    408000   4097.7497      740.06403      63728.276      2.0590999     -46069.795    
    409000   4018.4423      1898.998       63217.203      2.0757464     -46064.705    
    410000   4068.7565     -2548.0899      63168.591      2.0773439     -46031.204    
    411000   3973.0615      10009.307      63179.74       2.0769773     -46079.324    
    412000   3962.7317      1699.108       62242.31       2.1082586     -46145.748    
    413000   4131.9069      3108.4189      63528.928      2.0655611     -46097.767    
    414000   4037.5476      3622.373       63730.588      2.0590252     -46062.625    
    415000   4073.9867      538.4627       62211.393      2.1093063     -46119.006    
    416000   4037.6167     -450.97812      63927.328      2.0526884     -46112.615    
    417000   3957.3717      3806.0531      62890.789      2.0865199     -46058.102    
    418000   4010.0897     -8345.1281      64235.96       2.0428259     -46096.551    
    419000   3979.5515      3197.6419      62983.683      2.0834425     -46116.128    
    420000   3938.8987      1273.7482      63695.031      2.0601746     -46169.605    
    421000   4062.9532     -5637.7016      63045.003      2.0814161     -46047.846    
    422000   3900.275       1609.5403      63042.635      2.0814943     -46097.738    
    423000   4071.0338      2786.3295      63977.115      2.051091      -46164.287    
    424000   3891.4831      6214.7422      62747.748      2.0912764     -46181.675    
    425000   3900.3437      1857.4741      62539.659      2.0982347     -46171.91     
    426000   3942.5749     -1841.4218      63208.976      2.0760166     -46135.043    
    427000   3991.9284     -2355.001       62805.788      2.0893438     -46193.686    
    428000   3942.5965     -539.51086      62610.616      2.0958568     -46196.645    
    429000   3896.8781     -4305.5884      63167.846      2.0773684     -46259.082    
    430000   3938.3164     -1297.7667      62481.789      2.1001781     -46137.744    
    431000   3987.3068      1787.5949      62521.905      2.0988305     -46267.819    
    432000   3911.4583      2011.3349      62779.098      2.0902321     -46212.048    
    433000   3938.4778      3667.9209      62082.235      2.1136946     -46314.004    
    434000   3853.5214     -6976.5678      63985.219      2.0508312     -46177.474    
    435000   3934.9113      3513.1563      62321.818      2.105569      -46249.361    
    436000   3987.9559      2715.6673      62911.683      2.0858269     -46188.649    
    437000   3844.9017      7387.7951      62445.908      2.1013848     -46189.357    
    438000   3971.4874      899.0436       62936.911      2.0849909     -46215.302    
    439000   3998.6601      8744.1348      62078.675      2.1138158     -46310.083    
    440000   3955.2565     -2197.339       63436.893      2.0685579     -46206.824    
    441000   3845.4174     -2588.4223      62535.128      2.0983868     -46265.764    
    442000   3922.6511     -182.46435      62528.293      2.0986161     -46288.686    
    443000   3915.6088     -6438.6692      61704.099      2.1266478     -46284.999    
    444000   3863.0303     -2881.4315      63809.635      2.0564745     -46292.523    
    445000   3805.8705     -1239.4861      62354.93       2.1044508     -46257.177    
    446000   3869.2633     -2824.6242      62713.266      2.0924263     -46339.914    
    447000   3896.3375     -4721.8138      63308.704      2.0727463     -46295.923    
    448000   3834.8288      5754.3502      63142.001      2.0782187     -46261.048    
    449000   3846.8165      1529.0015      63394.071      2.0699552     -46286.372    
    450000   3793.4654      765.29387      61751.611      2.1250115     -46380.329    
    451000   3867.7674     -4458.1929      61220.996      2.1434294     -46341.413    
    452000   3875.8904     -559.47915      62098.633      2.1131364     -46279.008    
    453000   3824.3179      5396.8439      61952.806      2.1181104     -46343.03     
    454000   3847.8887      712.9835       62850.063      2.087872      -46386.429    
    455000   3814.2964      1589.4545      62128.213      2.1121304     -46343.975    
    456000   3818.9734     -2836.7985      61782.505      2.1239489     -46396.249    
    457000   3779.7067      3660.0499      62236.516      2.1084549     -46427.657    
    458000   3807.2527     -7437.4943      61866.666      2.1210596     -46375.679    
    459000   3729.1802      7088.6672      61512.227      2.1332813     -46382.379    
    460000   3827.1659      2351.2082      62523.741      2.0987689     -46371.093    
    461000   3805.1473     -4932.4623      62055.759      2.1145964     -46383.262    
    462000   3823.6007     -1142.2007      61207.045      2.143918      -46371.81     
    463000   3716.5664     -7074.4048      62088.299      2.1134882     -46433.599    
    464000   3762.3404      2924.7674      61721.706      2.1260411     -46350.744    
    465000   3826.5373      177.1318       62598.568      2.0962601     -46354.236    
    466000   3884.5714     -4045.5562      62346.57       2.104733      -46417.824    
    467000   3710.3427      2475.3434      62034.142      2.1153333     -46432.697    
    468000   3751.2934     -1523.913       61861.115      2.1212499     -46383.358    
    469000   3776.0187     -176.29038      61418.194      2.1365474     -46415.962    
    470000   3747.1028     -2801.3071      61031.207      2.1500949     -46573.012    
    471000   3743.0674     -5160.6556      61809.537      2.12302       -46514.702    
    472000   3749.2333     -1472.3927      61026.382      2.1502649     -46474.615    
    473000   3753.4729      592.07168      60830.08       2.1572039     -46515.152    
    474000   3652.6207     -1950.8362      61203.123      2.1440554     -46420.207    
    475000   3779.2206     -881.11336      62055.324      2.1146112     -46457.395    
    476000   3735.9598     -2169.9949      61726.808      2.1258654     -46518.535    
    477000   3722.2764     -2246.458       61966.89       2.117629      -46507.084    
    478000   3683.6681     -792.87117      61707.582      2.1265277     -46438.098    
    479000   3650.1719     -11610.629      61717.38       2.1261901     -46478.147    
    480000   3654.5265     -652.77925      60709.498      2.1614886     -46579.862    
    481000   3738.4371      10765.537      60700.668      2.161803      -46523.097    
    482000   3725.8552     -5453.2303      61715.197      2.1262653     -46496.277    
    483000   3781.1927     -131.06583      61279.899      2.1413691     -46571.471    
    484000   3626.2776      331.72489      61229.673      2.1431257     -46577.803    
    485000   3671.4522      2595.8313      61287.802      2.141093      -46507.332    
    486000   3650.5436     -3303.5641      61418.296      2.1365439     -46532.187    
    487000   3676.6104      4014.2648      60747.128      2.1601496     -46557.62     
    488000   3609.0521     -530.22755      61451.062      2.1354047     -46568.02     
    489000   3691.0276      5816.9775      61024.425      2.1503338     -46559.97     
    490000   3619.7219      3655.2485      61117.55       2.1470573     -46491.4      
    491000   3648.4281      7830.9764      60478.342      2.16975       -46545.826    
    492000   3630.8005     -3071.7376      61458.92       2.1351316     -46579.47     
    493000   3656.2661      5721.0775      60344.161      2.1745747     -46611.056    
    494000   3629.8986      4547.4635      61019.088      2.1505219     -46557.253    
    495000   3623.9049     -3707.8884      61001.935      2.1511266     -46588.821    
    496000   3631.999       4858.0228      60710.347      2.1614583     -46566.597    
    497000   3580.0367     -92.146829      61473.267      2.1346333     -46578.424    
    498000   3576.6027      2374.9391      60544.858      2.1673663     -46624.426    
    499000   3635.1973      4151.8154      60741.791      2.1603394     -46597.647    
    500000   3619.8432     -4558.8214      61154.842      2.1457481     -46640.976    
    501000   3605.3104     -4534.0689      61025.503      2.1502958     -46629.722    
    502000   3554.8213     -8245.8132      61120.269      2.1469618     -46633.105    
    503000   3554.758      -4596.2359      60914.974      2.1541975     -46656.643    
    504000   3554.6442     -751.63767      59792.13       2.1946514     -46725.579    
    505000   3601.4626      4768.5917      60384.171      2.1731338     -46693.078    
    506000   3557.3064      459.04027      61370.105      2.1382216     -46715.494    
    507000   3548.4989      7467.8261      59994.487      2.187249      -46714.587    
    508000   3650.6275     -1847.0916      60732.391      2.1606738     -46727.682    
    509000   3592.9685     -5098.0776      61197.242      2.1442614     -46768.166    
    510000   3669.539       7736.3643      61037.644      2.1498681     -46717.972    
    511000   3561.1094     -1976.2223      60679.933      2.1625417     -46755.976    
    512000   3593.7532      6324.1636      60887.609      2.1551657     -46702.878    
    513000   3465.0992     -2998.0138      61283.494      2.1412435     -46649.146    
    514000   3494.6028      6322.7624      60540.001      2.1675402     -46706.935    
    515000   3472.1767      4936.5797      60135.44       2.1821223     -46730.307    
    516000   3571.6244      5623.6108      60661.556      2.1631968     -46700.856    
    517000   3489.6308     -4725.5593      60250.082      2.1779702     -46762.038    
    518000   3414.7387      1024.1592      60919.46       2.1540389     -46783.233    
    519000   3528.0506      2716.0466      59776.11       2.1952396     -46776.1      
    520000   3490.3592      2281.5399      59988.351      2.1874728     -46774.793    
    521000   3503.6149      3292.5682      59369.285      2.2102824     -46800.879    
    522000   3453.5024     -4014.9469      60222.186      2.1789791     -46749.652    
    523000   3551.7861      5442.5769      59520.216      2.2046776     -46765.287    
    524000   3421.5682     -3648.9104      60503.605      2.1688441     -46744.671    
    525000   3437.6461     -1385.6895      59905.235      2.1905078     -46779.558    
    526000   3456.9885      2298.9307      59837.158      2.193         -46748.001    
    527000   3463.2486     -3037.7755      59655.256      2.1996869     -46812.389    
    528000   3525.1498     -5206.6109      61161.166      2.1455262     -46729.22     
    529000   3421.2006      271.55114      60705.986      2.1616136     -46779.835    
    530000   3477.6404     -979.67304      59854.672      2.1923582     -46808.727    
    531000   3415.6868      2129.5267      59648.01       2.1999541     -46807.911    
    532000   3432.9527     -7565.7158      61016.766      2.1506037     -46744.293    
    533000   3519.7483     -3231.821       59628.873      2.2006601     -46844.64     
    534000   3417.7125     -3552.5834      60437.782      2.1712061     -46844.859    
    535000   3427.8446     -4175.9651      59216.485      2.2159857     -46846.804    
    536000   3410.1348      2224.6002      59080.618      2.2210818     -46881.952    
    537000   3388.2636     -7755.1494      60305.166      2.1759808     -46834.966    
    538000   3376.2449     -36.511379      59106.337      2.2201153     -46903.813    
    539000   3478.7601      1515.6898      59734.868      2.1967552     -46911.477    
    540000   3421.8115     -2082.7924      59335.588      2.2115376     -46886.36     
    541000   3381.1419     -2653.7425      59794.629      2.1945597     -46877.293    
    542000   3407.138       949.64385      59716.854      2.1974179     -46882.793    
    543000   3431.097      -2727.4815      59880.795      2.1914019     -46876.936    
    544000   3327.0309     -95.162698      60142.851      2.1818534     -46859.342    
    545000   3381.002       6508.5047      60174.862      2.1806927     -46944.988    
    546000   3355.1276      2724.2799      59178.071      2.2174241     -46898.567    
    547000   3327.0219     -10933.133      61535.452      2.1324762     -46890.421    
    548000   3337.5786     -4118.4629      60447.825      2.1708454     -46912.917    
    549000   3359.2662     -2960.4624      59844.735      2.1927223     -46972.492    
    550000   3367.7642      8961.68        60105.106      2.1832236     -46929.394    
    551000   3342.1102      2641.7815      59263.776      2.2142174     -46999.263    
    552000   3370.4224     -1120.5345      59593.172      2.2019785     -46984.541    
    553000   3329.7338      379.03604      59691.872      2.1983375     -46940.188    
    554000   3294.6117      42.629485      58965.927      2.2254019     -46926.347    
    555000   3349.9147     -110.48171      59194.093      2.216824      -46968.942    
    556000   3337.8257     -1092.4389      59613.638      2.2012225     -46954.355    
    557000   3331.1721      137.49415      58476.73       2.2440188     -47045.939    
    558000   3330.5015      7604.9842      59222.08       2.2157764     -46965.305    
    559000   3319.0423      7141.7448      58627.228      2.2382584     -46975.711    
    560000   3248.5443      962.47314      59966.1        2.1882844     -46995.188    
    561000   3335.5461     -4868.2536      59630.612      2.200596      -46980.228    
    562000   3297.7386     -1340.6902      59477.047      2.2062777     -47044.036    
    563000   3331.3719      585.25744      59754.502      2.1960334     -47011.877    
    564000   3264.682      -1255.6271      59671.498      2.1990881     -47036.849    
    565000   3186.7839     -136.31713      60002.969      2.1869399     -47004.883    
    566000   3305.9863      4172.8314      59141.613      2.2187911     -47016.189    
    567000   3217.0735     -9372.2515      59752.795      2.1960962     -47004.114    
    568000   3220.8155     -2413.443       59447.994      2.207356      -46963.887    
    569000   3326.7628      776.78102      60021.865      2.1862514     -47085.372    
    570000   3291.4624     -1936.7972      60396.161      2.1727024     -47003.463    
    571000   3300.4815      7535.4292      59322.479      2.2120263     -47070.606    
    572000   3173.1725      1132.7972      59203.092      2.216487      -47035.434    
    573000   3232.644      -5888.9096      59207.073      2.216338      -47023.136    
    574000   3219.1311      3020.5928      59495.335      2.2055996     -47093.293    
    575000   3261.4807      6467.8794      58944.209      2.2262218     -47082.182    
    576000   3282.8315     -5540.4163      59705.725      2.1978275     -47059.811    
    577000   3176.6746     -5046.1343      59509.862      2.2050612     -47090.299    
    578000   3216.5087     -537.59199      59360.135      2.2106231     -47067.117    
    579000   3198.7426      116.84857      59222.767      2.2157506     -47085.41     
    580000   3207.2895      4555.546       58785.553      2.2322301     -47097.508    
    581000   3260.1516      1436.8877      59084.52       2.2209351     -47104.232    
    582000   3131.0303     -3979.5238      59981.562      2.1877204     -47097.762    
    583000   3247.975       529.62691      58323.526      2.2499134     -47156.544    
    584000   3148.7903      1001.0051      58558.237      2.2408954     -47187.62     
    585000   3110.3314     -3423.2298      59810.048      2.193994      -47108.184    
    586000   3066.2052     -1941.5329      59215.162      2.2160352     -47146.395    
    587000   3255.5248      4896.7272      58832.254      2.2304582     -47157.489    
    588000   3184.0209     -4044.9992      60206.192      2.179558      -47158.088    
    589000   3228.938      -731.80709      59290.533      2.2132182     -47118.856    
    590000   3153.0993      4785.2272      58519.582      2.2423756     -47218.987    
    591000   3155.3148      2015.2998      59529.727      2.2043253     -47130.494    
    592000   3189.5689      377.60793      58651.972      2.2373141     -47168.488    
    593000   3148.2591     -2660.3294      58535.627      2.241761      -47189.661    
    594000   3116.9704      360.93126      58853.24       2.2296629     -47194.094    
    595000   3157.4838     -2728.2237      58506.089      2.2428928     -47171.308    
    596000   3120.6321     -1121.4772      58592.148      2.2395985     -47226.134    
    597000   3112.8222      2228.0671      58567.165      2.2405538     -47183.601    
    598000   3084.9787      2521.7813      59069.002      2.2215186     -47163.665    
    599000   3126.0561      2670.7923      58954.403      2.2258369     -47203.232    
    600000   3099.7552      1651.7905      59056.642      2.2219835     -47177.093    
    601000   3136.5448     -314.01417      60204.579      2.1796163     -47205.641    
    602000   3123.533      -4591.9407      59568.972      2.2028731     -47155.846    
    603000   3066.2211     -3798.7841      58913.323      2.2273889     -47214.56     
    604000   3081.7008      7122.6628      59038.196      2.2226777     -47233.324    
    605000   3107.39       -3377.006       59170.231      2.217718      -47220.923    
    606000   3098.6463     -885.42002      59203.191      2.2164833     -47230.113    
    607000   3082.4189     -9132.5643      58821.571      2.2308633     -47249.57     
    608000   3029.4882     -4245.0876      58490.346      2.2434965     -47238.9      
    609000   3063.6512      2081.2921      59223.422      2.2157261     -47224.12     
    610000   3053.3769     -2598.3211      58926.6        2.2268871     -47265.619    
    611000   3076.8318     -1103.5946      58893.267      2.2281475     -47288.89     
    612000   3057.3196     -6256.6097      58699.259      2.2355118     -47262.922    
    613000   3096.8444     -3249.4984      59041.325      2.2225599     -47218.896    
    614000   3024.9813     -1615.6873      59049.19       2.2222639     -47290.208    
    615000   3066.0878      4985.332       58345.676      2.2490593     -47255.955    
    616000   3023.0828     -2168.3913      59635.384      2.2004199     -47270.631    
    617000   2985.7708     -692.71764      59254.29       2.2145719     -47294.422    
    618000   2969.5957     -3226.7598      58833.925      2.2303949     -47277.067    
    619000   3049.9055     -2605.442       59353.84       2.2108575     -47275.564    
    620000   3048.1214      932.32948      59005.156      2.2239223     -47317.314    
    621000   2964.0258      3953.3135      58208.883      2.2543447     -47325.406    
    622000   3008.8233      2925.3606      58933.991      2.2266078     -47335.272    
    623000   2992.2426      1150.2929      58749.315      2.2336071     -47293.619    
    624000   2949.3125     -103.98294      58368.075      2.2481962     -47348.658    
    625000   2874.1346     -4588.9753      58985.189      2.2246752     -47318.879    
    626000   2937.9818     -2576.0253      59296.731      2.2129868     -47387.137    
    627000   3064.1093      3695.3597      58100.219      2.2585609     -47382.424    
    628000   2971.8441      7229.0397      58840.205      2.2301568     -47376.755    
    629000   3047.0873      2879.5881      58758.868      2.2332439     -47386.781    
    630000   2985.7925     -5219.1765      58945.694      2.2261657     -47343.091    
    631000   2910.2554     -459.72698      58262.164      2.252283      -47369.634    
    632000   2917.9351      3893.9009      57906.464      2.2661181     -47337.484    
    633000   2838.744      -3937.3803      58254.152      2.2525928     -47357.789    
    634000   2981.1901     -248.0499       57767.09       2.2715855     -47419.524    
    635000   2961.9692     -1068.2638      58259.61       2.2523818     -47360.449    
    636000   2868.9609      3232.2689      58229.785      2.2535355     -47420.809    
    637000   2922.9294     -1104.9284      57957.913      2.2641064     -47414.146    
    638000   2930.1096     -6025.5649      58206.806      2.2544251     -47395.604    
    639000   2842.1684     -3232.9139      57944.243      2.2646406     -47423.265    
    640000   2862.1741      2271.78        57836.217      2.2688704     -47400.381    
    641000   2839.676      -3883.5528      58176.697      2.2555919     -47457.987    
    642000   2934.5153      4393.0337      57931.136      2.265153      -47463.497    
    643000   2918.6475     -1741.6377      57517.656      2.2814366     -47462.602    
    644000   2850.8619      1542.4975      58325.035      2.2498552     -47484.856    
    645000   2877.5626      2928.8771      57753.114      2.2721352     -47454.883    
    646000   2835.1697     -5359.2769      58048.228      2.2605838     -47452.192    
    647000   2919.9768      5478.4148      57921.935      2.2655128     -47473.349    
    648000   2871.0069      1371.5698      57737.733      2.2727405     -47477.637    
    649000   2830.2511     -3721.5121      58070.237      2.259727      -47428.056    
    650000   2818.3306      1149.1104      57813.921      2.2697454     -47463.702    
    651000   2789.5908     -2227.0173      56999.691      2.3021684     -47523.546    
    652000   2862.3546     -1622.3436      57890.286      2.2667514     -47472.34     
    653000   2782.8494     -2334.6973      57808.004      2.2699778     -47482.346    
    654000   2851.5762      433.40181      57909.595      2.2659956     -47519.421    
    655000   2815.7301      850.3025       57700.009      2.2742264     -47532.35     
    656000   2869.4499      2281.5019      57760.848      2.271831      -47481.089    
    657000   2861.1098     -2443.4176      57783.745      2.2709308     -47547.686    
    658000   2812.9599     -3589.5932      57613.656      2.2776351     -47527.787    
    659000   2792.5012     -6190.6411      58169.375      2.2558758     -47541.577    
    660000   2762.0687      6253.9495      57650.194      2.2761915     -47501.114    
    661000   2835.1436     -1020.9209      58437.177      2.2455377     -47530.677    
    662000   2766.3326     -1936.3173      58063.397      2.2599932     -47557.995    
    663000   2737.6054     -1584.3257      58316.544      2.2501828     -47528.04     
    664000   2739.0546     -3691.9901      58280.298      2.2515823     -47521.715    
    665000   2750.5196     -7575.786       58354.556      2.248717      -47570.483    
    666000   2712.206      -1464.3064      58078.673      2.2593988     -47527.399    
    667000   2754.7634     -2735.1733      58625.229      2.2383347     -47514.805    
    668000   2754.7433      3164.3054      58247.1        2.2528655     -47572.099    
    669000   2742.5666     -313.83662      57474.046      2.2831677     -47547.806    
    670000   2792.6814     -1281.3211      57838.614      2.2687764     -47555.167    
    671000   2758.8046      4537.1548      58125.546      2.2575768     -47578.752    
    672000   2672.1796     -4718.7592      58400.244      2.2469578     -47553.119    
    673000   2749.5312     -1051.7402      58273.664      2.2518386     -47586.852    
    674000   2749.8145     -2210.049       58083.577      2.2592081     -47588.251    
    675000   2742.8972     -3980.0175      57877.793      2.2672406     -47599.989    
    676000   2735.9012     -72.025409      58730.017      2.234341      -47570.884    
    677000   2706.6652      4096.6532      57936.293      2.2649513     -47618.811    
    678000   2678.8263      3866.056       58632.69       2.2380499     -47560.178    
    679000   2687.8301      4674.8947      57786.286      2.2708309     -47608.748    
    680000   2746.0128      8208.6928      57612.752      2.2776708     -47628.706    
    681000   2726.9612     -7654.1357      58329.708      2.249675      -47586.95     
    682000   2708.2536      182.43871      58381.821      2.2476668     -47625.002    
    683000   2654.9023      5193.389       58057.531      2.2602216     -47625.547    
    684000   2666.1958      557.99611      58096.866      2.2586913     -47624.786    
    685000   2657.1911      378.84857      57788.212      2.2707552     -47679.692    
    686000   2609.9332      1790.7167      58112.59       2.2580801     -47629.659    
    687000   2693.6961     -7377.0753      58207.92       2.2543819     -47640.856    
    688000   2690.4607     -1626.5428      57864.95       2.2677438     -47645.983    
    689000   2686.4567      1333.0235      57581.754      2.278897      -47653.622    
    690000   2652.7496      576.57389      57265.908      2.291466      -47698.037    
    691000   2693.9564     -8364.8715      57763.732      2.2717175     -47651.561    
    692000   2642.288      -6455.3242      57158.807      2.2957597     -47668.457    
    693000   2644.5044      5782.9645      57341.747      2.2884354     -47696.16     
    694000   2672.7377      2401.4973      57712.227      2.2737449     -47667.782    
    695000   2574.554       3105.9769      57373.545      2.2871671     -47666.329    
    696000   2628.98        736.28471      57137.198      2.2966279     -47705.178    
    697000   2671.8953      2899.633       57489.244      2.2825641     -47677.545    
    698000   2587.0743      3920.4255      57020.331      2.301335      -47690.909    
    699000   2620.8049      2797.7773      56989.329      2.3025869     -47720.251    
    700000   2623.7855     -509.82597      57459.232      2.2837563     -47696.556    
    701000   2580.1571     -5778.1404      57039.512      2.3005611     -47754.509    
    702000   2570.9005      3507.4589      57084.17       2.2987614     -47675.338    
    703000   2591.5788      742.17304      57220.281      2.2932933     -47738.583    
    704000   2536.496      -477.76245      57911.043      2.2659389     -47740.341    
    705000   2578.0961      5319.8325      56909.977      2.3057975     -47719.811    
    706000   2634.8476      4607.5324      57356.024      2.2878658     -47724.709    
    707000   2640.3777      2264.72        57434.063      2.2847571     -47749.614    
    708000   2593.6112      1366.6853      57593.275      2.2784411     -47725.64     
    709000   2545.8307     -58.108052      56971.66       2.303301      -47756.467    
    710000   2554.5826     -301.54789      57356.431      2.2878496     -47766.094    
    711000   2546.3023      286.38438      57223.961      2.2931458     -47779.614    
    712000   2471.833       238.27325      57040.681      2.300514      -47745.702    
    713000   2601.5801     -1279.7385      57389.202      2.2865431     -47729.688    
    714000   2534.9225      2891.9167      57372.061      2.2872263     -47768.497    
    715000   2509.8549     -3451.8308      57191.44       2.2944497     -47798.145    
    716000   2514.5794     -658.6986       56749.804      2.3123055     -47806.995    
    717000   2542.4855     -3070.701       57352.302      2.2880143     -47782.987    
    718000   2517.1402      2419.7458      56872.492      2.3073173     -47778.634    
    719000   2424.5869     -4420.6299      57096.033      2.2982837     -47792.48     
    720000   2480.9713     -1414.2984      57169.42       2.2953335     -47794.181    
    721000   2551.5917      3193.8158      57096.991      2.2982452     -47826.697    
    722000   2529.9108     -5795.911       57372.73       2.2871996     -47831.936    
    723000   2466.6062      3975.3521      56988.712      2.3026119     -47821.477    
    724000   2487.9543     -2286.7154      57120.487      2.2972998     -47819.727    
    725000   2472.2831      2522.8858      56620.131      2.3176012     -47820.049    
    726000   2500.2746     -1456.9568      57246.043      2.2922612     -47791.309    
    727000   2428.1762     -4605.7084      57025.254      2.3011363     -47813.054    
    728000   2498.3544      7899.775       56768.795      2.311532      -47851.182    
    729000   2481.8511      1680.0547      57366.071      2.2874651     -47865.841    
    730000   2442.3347     -1553.8915      56973.646      2.3032208     -47828.838    
    731000   2408.4484      4117.3536      57301.673      2.2900358     -47861.033    
    732000   2466.7359      6731.3098      56582.122      2.319158      -47890.078    
    733000   2448.1556      2280.9369      56975.719      2.303137      -47868.939    
    734000   2359.9161     -3774.9084      56889.899      2.3066113     -47880.406    
    735000   2438.6391     -250.90077      57031.296      2.3008925     -47894.925    
    736000   2386.6292      1439.3191      57041.297      2.3004891     -47891.498    
    737000   2466.4901      1137.4726      56578.726      2.3192973     -47917.247    
    738000   2368.6961      2285.8567      56857.931      2.3079082     -47903.115    
    739000   2404.2411     -4843.0991      56618.311      2.3176757     -47930.254    
    740000   2375.0093      2891.3173      57092.164      2.2984395     -47876.009    
    741000   2410.6595      339.03612      56956.207      2.303926      -47883.985    
    742000   2346.7434      2900.8612      56600.362      2.3184107     -47928.535    
    743000   2383.8375      6422.5492      56731.816      2.3130387     -47889.027    
    744000   2392.7571      1974.4685      56813.78       2.3097017     -47919.183    
    745000   2377.7647      4225.9658      56848.469      2.3082923     -47908.689    
    746000   2423.357       3033.6716      56826.62       2.3091798     -47912.967    
    747000   2368.9466      4355.577       56630.796      2.3171647     -47916.609    
    748000   2381.7427     -1517.6779      56956.99       2.3038943     -47951.956    
    749000   2353.9214     -9205.7344      57189.252      2.2945375     -47914.629    
    750000   2332.7713      2228.9993      56705.16       2.314126      -47898.126    
    751000   2350.8056      2887.374       56947.17       2.3042916     -47950.247    
    752000   2390.8942     -1867.5379      57251.492      2.2920431     -47930.716    
    753000   2359.644      -548.21481      57129.781      2.2969261     -47937.651    
    754000   2285.7415      1357.8295      57230.163      2.2928973     -47957.423    
    755000   2315.741      -3574.4087      57104.733      2.2979336     -47970.812    
    756000   2348.1356     -4469.9559      57125.489      2.2970987     -47976.241    
    757000   2276.9652     -9054.6763      57128.8        2.2969655     -47967.523    
    758000   2318.3177     -613.76194      57105.664      2.2978961     -47985.823    
    759000   2304.1144     -2308.2896      57172.968      2.295191      -48011.3      
    760000   2278.2507     -2153.7816      57097.012      2.2982443     -47957.483    
    761000   2293.7608      381.68345      56826.188      2.3091974     -47993.385    
    762000   2328.7502      1823.3174      57394.43       2.2863348     -47977.803    
    763000   2318.906       6421.5136      57141.5        2.296455      -48019.611    
    764000   2274.5463     -3421.2575      56689.677      2.314758      -47987.319    
    765000   2298.1884      6828.4633      56942.174      2.3044938     -47995.233    
    766000   2249.4603     -157.63482      56831.003      2.3090017     -48002.582    
    767000   2260.3974     -978.45302      56831.022      2.3090009     -47999.266    
    768000   2286.7202      2273.7552      56589.827      2.3188423     -48030.677    
    769000   2164.2693      2023.1178      56575.848      2.3194152     -48028.028    
    770000   2284.4684      1189.1116      56856.668      2.3079594     -48036.434    
    771000   2235.2816      2122.499       56644.294      2.3166126     -48017.107    
    772000   2247.2685     -2343.288       56304.003      2.3306137     -48050.018    
    773000   2258.0026      3136.6609      56711.364      2.3138728     -48030.624    
    774000   2248.5897      1396.5086      56751.511      2.3122359     -48070.412    
    775000   2260.0489      3844.6758      56032.534      2.3419052     -48059.728    
    776000   2202.6756      1031.7204      56745.91       2.3124642     -48078.233    
    777000   2219.596      -3840.7405      56811.219      2.3098058     -48056.446    
    778000   2181.7483      1903.4178      56753.708      2.3121464     -48064.739    
    779000   2207.8293      2776.0641      56347.477      2.3288156     -48038.313    
    780000   2230.1171      2657.5227      56775.616      2.3112543     -48087.385    
    781000   2192.0138     -3649.2253      56508.201      2.3221919     -48087.84     
    782000   2240.1925     -4780.7602      56552.943      2.3203547     -48082.177    
    783000   2174.2342      456.14586      56406.222      2.3263902     -48092.415    
    784000   2098.2017     -307.36837      56489.084      2.3229777     -48106.37     
    785000   2160.7517      2051.6276      56390.346      2.3270452     -48097.618    
    786000   2137.5434     -1695.724       56749.077      2.3123351     -48077.432    
    787000   2151.9488     -497.76763      56846.709      2.3083638     -48066.952    
    788000   2124.8468      1511.2999      56277.711      2.3317026     -48115.462    
    789000   2110.5623      2679.0252      56556.96       2.3201899     -48128.143    
    790000   2156.5933      582.94019      56582.517      2.3191419     -48108.627    
    791000   2160.0395      3284.134       56427.415      2.3255165     -48146.262    
    792000   2169.2224     -490.52909      56120.872      2.3382189     -48133.784    
    793000   2119.9637     -1196.5587      56692.623      2.3146377     -48118.935    
    794000   2117.8446      434.48448      56413.517      2.3260894     -48119.308    
    795000   2117.3249      2576.6372      56652.071      2.3162946     -48143.946    
    796000   2154.7773      1014.874       56507.924      2.3222032     -48129.445    
    797000   2106.8041      7616.8541      56291.472      2.3311326     -48168.507    
    798000   2140.0942     -2190.5654      56302.296      2.3306844     -48139.947    
    799000   2140.4485     -4981.7504      56572.917      2.3195354     -48164.621    
    800000   2132.406      -2448.0331      56290.514      2.3311722     -48162.47     
    801000   2089.3388     -1026.7396      56530.864      2.3212609     -48153.704    
    802000   2142.3681      2166.0857      56547.862      2.3205631     -48145.22     
    803000   2096.1463     -3964.5523      56411.316      2.3261802     -48180.048    
    804000   2131.1624      876.5274       56408.81       2.3262835     -48187.21     
    805000   2067.4646      1363.0804      56525.155      2.3214954     -48157.002    
    806000   2074.3566     -8906.3068      56579.761      2.3192548     -48148.12     
    807000   2087.598       4559.0879      56250.775      2.3328191     -48194.377    
    808000   2076.8741     -789.49384      56357.453      2.3284034     -48188.567    
    809000   1994.2561     -3109.2221      56845.619      2.3084081     -48172.382    
    810000   2082.3512      30.66205       56590.106      2.3188308     -48179.528    
    811000   2040.0327     -840.41175      56534.583      2.3211082     -48192.603    
    812000   2007.4679      6038.237       55865.246      2.348918      -48235.036    
    813000   2046.3077      1325.814       56320.776      2.3299197     -48177.208    
    814000   2021.4822     -4107.0272      56572.329      2.3195595     -48200.905    
    815000   2000.1252     -3582.8118      56216.508      2.3342411     -48211.875    
    816000   2038.9443      3131.0594      56101.866      2.339011      -48210.331    
    817000   2002.4039      5037.2699      55806.634      2.351385      -48222.338    
    818000   2016.8046      239.82119      56103.909      2.3389259     -48201.2      
    819000   2021.0567      4252.8136      56462.053      2.3240899     -48222.242    
    820000   2016.3129     -4116.9294      56382.353      2.3273751     -48240.181    
    821000   2010.7801     -535.44484      55820.133      2.3508164     -48208.887    
    822000   1996.4883     -3998.1663      56560.533      2.3200433     -48243.68     
    823000   1967.5452     -665.18359      56086.374      2.3396571     -48249.191    
    824000   1974.4349     -961.04239      56001.376      2.3432082     -48237.101    
    825000   1980.1508     -805.08462      56101.999      2.3390055     -48263.323    
    826000   1986.7521     -845.7588       56489.046      2.3229793     -48236.04     
    827000   1963.0237     -4536.549       55779.523      2.3525279     -48275.994    
    828000   1954.0061      3139.0465      56209.284      2.3345411     -48243.813    
    829000   1975.8257     -3891.1803      56076.485      2.3400697     -48265.13     
    830000   1899.473      -1271.3534      56161.783      2.3365156     -48282.728    
    831000   1990.2749      2711.6271      56190.507      2.3353212     -48287.883    
    832000   1950.3548      553.59073      56307.812      2.3304561     -48260.197    
    833000   1929.1967     -1186.2564      56310.559      2.3303424     -48276.1      
    834000   1967.4982     -929.44136      56066.188      2.3404995     -48263.966    
    835000   1922.7952     -2322.1513      56154.682      2.3368111     -48285.014    
    836000   1996.883       3946.5438      55765.607      2.353115      -48287.616    
    837000   1925.7201      6259.4691      55669.144      2.3571924     -48296.011    
    838000   1926.3685      1071.5967      56057.2        2.3408747     -48261.844    
    839000   1897.8688     -1679.8117      56340.713      2.3290952     -48295.384    
    840000   1911.6977     -3442.0316      55961.253      2.3448883     -48277.62     
    841000   1923.1179      3737.9024      55836.587      2.3501236     -48282.697    
    842000   1892.4933      1772.5119      56113.638      2.3385204     -48309.262    
    843000   1871.7707     -1264.3692      55769.357      2.3529567     -48292.478    
    844000   1826.6168     -3006.3747      56007.643      2.342946      -48318.844    
    845000   1872.438       1259.0561      55987.285      2.343798      -48291.401    
    846000   1819.7718      3234.9913      55895.744      2.3476364     -48321.069    
    847000   1893.3811     -5210.9305      56166.562      2.3363168     -48328.967    
    848000   1810.8472     -2081.1465      56246.319      2.333004      -48300.02     
    849000   1813.1598      5357.3445      55713.142      2.3553309     -48316.503    
    850000   1845.4233      1003.2936      55667.362      2.3572679     -48341.978    
    851000   1850.3944      3588.0367      55753.204      2.3536384     -48349.022    
    852000   1851.7514     -2401.9367      55939.816      2.3457868     -48339.757    
    853000   1836.8741      4425.1858      55596.014      2.360293      -48349.537    
    854000   1832.1341      4366.7814      55769.159      2.3529651     -48342.597    
    855000   1771.6669      2432.0241      55898.66       2.3475139     -48356.844    
    856000   1837.0736      664.70037      55880.069      2.3482949     -48355.255    
    857000   1800.2288      2811.1472      55909.701      2.3470504     -48358.365    
    858000   1883.6671      1741.565       55788.925      2.3521314     -48344.775    
    859000   1797.7859     -3239.7903      55684.139      2.3565577     -48356.613    
    860000   1810.6785      4835.2275      56128.12       2.337917      -48354.997    
    861000   1821.8637     -2826.0686      56021.914      2.3423492     -48367.608    
    862000   1761.396       379.39358      55992.706      2.343571      -48363.968    
    863000   1786.1813     -2915.7574      55824.376      2.3506377     -48363.065    
    864000   1792.5913      2293.4346      55784.552      2.3523158     -48392.896    
    865000   1818.1204      3647.3684      55580.735      2.3609419     -48374.153    
    866000   1744.2988     -3360.5078      56435.188      2.3251962     -48366.056    
    867000   1768.6791     -4410.3995      56193.435      2.3351996     -48382.898    
    868000   1739.5067     -451.08206      55816.951      2.3509504     -48367.886    
    869000   1750.3529     -3439.931       55669.042      2.3571967     -48383.637    
    870000   1757.8741      5468.9552      55583.162      2.3608388     -48386.82     
    871000   1747.3883      2743.8946      55637.843      2.3585185     -48401.398    
    872000   1759.5322      1503.1033      55655.901      2.3577533     -48417.803    
    873000   1729.9875      1558.3709      55652.108      2.357914      -48416.559    
    874000   1703.8074      2451.6139      55690.749      2.356278      -48365.75     
    875000   1725.8899      2596.8357      55298.111      2.3730084     -48428.387    
    876000   1727.283      -3618.7601      55572.027      2.3613118     -48415.478    
    877000   1725.8004      2387.9157      55730.766      2.354586      -48423.368    
    878000   1697.674      -1185.7253      55391.73       2.3689978     -48442.099    
    879000   1709.7537      8228.7949      55320.792      2.3720355     -48413.447    
    880000   1681.2449      3604.662       55339.306      2.3712419     -48434.109    
    881000   1707.1381     -4681.2375      55882.439      2.3481954     -48433.216    
    882000   1670.66        1620.0482      55353.281      2.3706433     -48422.184    
    883000   1705.3639     -857.90863      55278.009      2.3738714     -48427.518    
    884000   1679.6571     -1608.9065      55769.728      2.3529411     -48427.067    
    885000   1670.5371      615.28393      55807.692      2.3513405     -48448.042    
    886000   1672.6827      4675.2404      55657.631      2.35768       -48439.231    
    887000   1658.9886     -1487.8165      55499.023      2.3644179     -48449.721    
    888000   1679.1232     -2037.4233      55689.245      2.3563416     -48442.386    
    889000   1625.5124      2766.5705      55340.094      2.3712082     -48446.809    
    890000   1688.8516      3660.2978      55156.766      2.3790895     -48472.603    
    891000   1625.0206     -2910.7389      55703.368      2.3557442     -48451.915    
    892000   1620.7447      335.89022      55470.435      2.3656365     -48443.073    
    893000   1658.3213      9028.4375      55067.845      2.3829312     -48487.568    
    894000   1573.1866     -1150.5248      55263.109      2.3745114     -48482.911    
    895000   1623.2667     -1892.169       55661.362      2.357522      -48472.144    
    896000   1591.8378      990.17795      55369.127      2.3699648     -48473.318    
    897000   1618.1281     -1536.1291      55264.165      2.3744661     -48464.499    
    898000   1620.3231      132.93783      55275.813      2.3739657     -48510.25     
    899000   1613.3041     -1171.1876      55406.979      2.3683458     -48497.032    
    900000   1598.5827      3646.0352      55542.684      2.3625593     -48482.866    
    901000   1593.0972     -246.32534      55178.225      2.3781643     -48509.873    
    902000   1621.7869      1001.4839      55317.153      2.3721916     -48505.299    
    903000   1582.8288     -6728.599       55310.635      2.3724711     -48494.542    
    904000   1571.0642      2451.3372      55037.1        2.3842623     -48501.154    
    905000   1561.6363     -1640.8231      55217.58       2.3764693     -48502.655    
    906000   1577.289      -145.45725      55212.851      2.3766728     -48504.52     
    907000   1627.1281     -4436.4736      55543.682      2.3625169     -48520.199    
    908000   1577.9088      4103.2141      55135.458      2.380009      -48512.625    
    909000   1540.5527     -3458.1165      55049.312      2.3837334     -48516.229    
    910000   1528.1632     -2060.3517      55194.552      2.3774608     -48525.975    
    911000   1554.6565     -2521.7392      55538.603      2.3627329     -48515.84     
    912000   1519.5862     -2617.0698      54879.92       2.391091      -48527.541    
    913000   1578.0548     -240.75335      54898.334      2.390289      -48535.451    
    914000   1537.0068     -227.84228      55401.773      2.3685683     -48544.451    
    915000   1526.6983      2789.225       55186.026      2.3778281     -48528.443    
    916000   1535.3926     -1845.7066      55018.696      2.3850599     -48548.985    
    917000   1490.8019     -3452.7951      55263.675      2.3744871     -48538.282    
    918000   1496.6388     -4642.2547      54980.397      2.3867213     -48563.393    
    919000   1476.8966      1758.4951      54807.552      2.3942482     -48562.143    
    920000   1502.4883     -2449.2896      55136.064      2.3799828     -48553.729    
    921000   1495.6212     -323.76948      55376.621      2.3696441     -48556.273    
    922000   1518.9235     -4369.9126      55377.491      2.3696069     -48574.343    
    923000   1510.6901      3966.3071      54726.549      2.3977921     -48583.765    
    924000   1480.3345      5619.2491      54981.242      2.3866846     -48591.157    
    925000   1467.2471     -5168.0473      55243.286      2.3753635     -48567.287    
    926000   1444.0516     -755.39423      54958.002      2.3876938     -48593.572    
    927000   1466.438       1500.7143      54969.923      2.387176      -48582.624    
    928000   1461.2639      3060.589       54972.759      2.3870529     -48573.16     
    929000   1462.3742     -663.36554      55061.292      2.3832148     -48599.44     
    930000   1446.2564     -3216.7455      55319.89       2.3720742     -48598.764    
    931000   1442.1946      1692.6494      54976.29       2.3868996     -48596.209    
    932000   1447.4772     -444.02306      54746.76       2.3969069     -48569.507    
    933000   1446.6234     -747.16012      54934.166      2.3887299     -48613.254    
    934000   1452.6949      1906.2684      55197.65       2.3773274     -48597.783    
    935000   1423.8248     -264.87524      55298.741      2.3729814     -48590.098    
    936000   1414.5723      2205.059       54693.318      2.3992489     -48611.76     
    937000   1402.0105      3536.0476      54910.378      2.3897647     -48609.44     
    938000   1373.0937     -2138.2719      55195.836      2.3774055     -48633.528    
    939000   1447.9848      3374.5209      54977.443      2.3868495     -48629.293    
    940000   1378.4335      1595.8587      54557.513      2.4052212     -48626.725    
    941000   1406.0199     -1469.0023      54826.777      2.3934087     -48638.704    
    942000   1372.9079      803.14921      55261.895      2.3745636     -48634.607    
    943000   1352.047       3969.7464      54589.058      2.4038313     -48643.24     
    944000   1369.9152      3829.5071      54574.014      2.4044939     -48632.869    
    945000   1389.8301      1272.2332      54839.674      2.3928458     -48645.444    
    946000   1381.5398      894.78724      54776.236      2.395617      -48634.59     
    947000   1372.3037      3725.622       54822.625      2.3935899     -48660.754    
    948000   1364.1664      1623.5841      54701.8        2.3988769     -48657.668    
    949000   1358.3475     -3101.2129      54854.407      2.3922032     -48659.427    
    950000   1353.2723     -3422.307       54916.402      2.3895026     -48677.867    
    951000   1365.0746      3419.4249      54838.226      2.392909      -48669.252    
    952000   1336.2533     -1909.3228      54648.277      2.4012264     -48666.089    
    953000   1329.7409      1456.3635      54693.403      2.3992452     -48673.004    
    954000   1321.8667     -3063.8177      54904.138      2.3900363     -48664.665    
    955000   1313.8139      2185.3538      54944.814      2.3882669     -48673.542    
    956000   1313.3971     -3449.8562      54500.964      2.4077168     -48677.723    
    957000   1346.2207      998.31095      54546.72       2.4056971     -48680.374    
    958000   1297.7942     -2731.1793      55076.105      2.3825738     -48683.248    
    959000   1294.2131     -293.77264      54688.74       2.3994498     -48687.627    
    960000   1326.6226      58.735336      54708.008      2.3986047     -48673.682    
    961000   1287.1803      3127.0517      54629.045      2.4020717     -48697.605    
    962000   1282.6372     -145.04838      54703.6        2.398798      -48716.759    
    963000   1294.1525     -2713.557       54854.261      2.3922095     -48700.4      
    964000   1288.7135      3388.254       54433.608      2.4106961     -48698.601    
    965000   1272.6514     -1773.5403      54651.342      2.4010917     -48719.011    
    966000   1291.3676      7380.0358      54675.779      2.4000186     -48708.089    
    967000   1273.4028      2811.2015      54400.651      2.4121565     -48714.232    
    968000   1285.2735      5049.9854      54585.676      2.4039802     -48712.675    
    969000   1263.7033      2055.802       54647.138      2.4012764     -48733.27     
    970000   1236.2697      219.04789      54808.3        2.3942156     -48720.519    
    971000   1258.2596     -692.25983      54834.663      2.3930645     -48709.13     
    972000   1254.752      -1154.6744      54542.967      2.4058626     -48741.328    
    973000   1250.6019     -687.91873      54583.874      2.4040596     -48731.937    
    974000   1226.8099      1631.9788      54762.447      2.3962202     -48733.297    
    975000   1205.2711     -1837.9375      54865.82       2.3917055     -48735.07     
    976000   1239.2995     -2966.1066      54538.182      2.4060737     -48740.709    
    977000   1245.0699     -2253.2008      54586.03       2.4039646     -48748.592    
    978000   1223.2544     -905.28061      54615.494      2.4026677     -48746.286    
    979000   1190.7675     -770.63856      54944.807      2.3882673     -48743.954    
    980000   1197.0579      2144.5086      54426.352      2.4110175     -48739.366    
    981000   1182.2284      2647.7064      54634.66       2.4018249     -48752.034    
    982000   1199.2491      2333.1458      54619.708      2.4024824     -48756.564    
    983000   1180.3135     -2939.7557      54570.504      2.4046486     -48752.819    
    984000   1168.507       804.98286      54266.756      2.4181081     -48767.391    
    985000   1182.1786      3053.3817      54780.677      2.3954228     -48775.466    
    986000   1182.6876      2894.5934      54470.972      2.4090425     -48762.627    
    987000   1155.2591      970.38244      54478.858      2.4086937     -48773.245    
    988000   1161.9355     -2470.3395      54456.43       2.4096858     -48778.664    
    989000   1164.1343     -3455.8647      54752.503      2.3966554     -48772.394    
    990000   1141.2304     -1085.9242      54494.466      2.4080039     -48777.215    
    991000   1129.6691      5304.5311      53974.767      2.4311894     -48789.315    
    992000   1157.1925     -3792.3592      54780.611      2.3954257     -48795.446    
    993000   1127.5352      2928.0148      54035.321      2.428465      -48813.681    
    994000   1137.3564      1294.2316      54408.4        2.4118129     -48784.976    
    995000   1138.5836     -975.41313      54405.519      2.4119407     -48804.509    
    996000   1124.419       3997.988       54552.062      2.4054615     -48809.711    
    997000   1127.3753     -1239.8629      54097.407      2.4256779     -48806.597    
    998000   1095.972      -72.330474      54667.112      2.4003991     -48818.097    
    999000   1104.5276     -1199.2861      54469.104      2.4091251     -48803.512    
   1000000   1102.9028     -1453.118       54310.763      2.4161488     -48818.138    
   1001000   1091.3897      3687.4139      54350.05       2.4144023     -48825.673    
   1002000   1110.7953      1048.0314      54120.437      2.4246457     -48813.95     
   1003000   1080.8017     -3205.4124      54604.089      2.4031696     -48827.868    
   1004000   1073.6314     -4069.7956      54556.187      2.4052796     -48822.226    
   1005000   1084.3687      1946.3497      54202.103      2.4209925     -48833.651    
   1006000   1079.4892     -1848.8007      54584.764      2.4040203     -48819.291    
   1007000   1046.4977      1949.6595      54211.324      2.4205807     -48828.777    
   1008000   1067.1062      4342.7792      54059.727      2.4273686     -48846.242    
   1009000   1044.5512     -2781.666       54442.414      2.4103061     -48853.07     
   1010000   1060.0721     -499.45091      54415.47       2.4114996     -48846.482    
   1011000   1037.3251     -276.85019      54258.117      2.4184932     -48846.273    
   1012000   1036.3264     -3985.779       54295.499      2.416828      -48858.697    
   1013000   1024.666      -2186.4009      54339.046      2.4148912     -48850.911    
   1014000   1038.5029     -2488.9226      54299.156      2.4166653     -48851.853    
   1015000   1049.122       2848.0528      54274.694      2.4177545     -48858.952    
   1016000   996.16313     -571.14429      54244.938      2.4190807     -48864.021    
   1017000   1026.531       3010.279       54424.122      2.4111162     -48865.015    
   1018000   1006.3729     -1488.5236      54386.666      2.4127768     -48871.313    
   1019000   1014.9661      1098.78        54226.456      2.4199052     -48874.47     
   1020000   972.91181      2256.7636      54120.53       2.4246415     -48867.399    
   1021000   984.6652      -760.40543      54472.509      2.4089745     -48878.83     
   1022000   983.84924      3482.1176      54065.778      2.4270969     -48884.62     
   1023000   981.4883       1990.9543      54154.452      2.4231227     -48876.661    
   1024000   988.21585     -1268.1941      54296.9        2.4167657     -48882.496    
   1025000   964.66109     -1534.6644      54372.552      2.4134031     -48886.717    
   1026000   967.87406      2141.3001      54007.731      2.4297056     -48883.98     
   1027000   968.26378      3150.9599      54141.565      2.4236995     -48892.336    
   1028000   956.37365     -1107.4783      54222.308      2.4200903     -48900.059    
   1029000   946.03494      527.23363      54105.469      2.4253164     -48904.513    
   1030000   933.72718      708.79264      54154.468      2.423122      -48893.744    
   1031000   940.37471     -678.10569      54127.31       2.4243378     -48913.713    
   1032000   945.96993      1679.2786      54130.419      2.4241986     -48915.782    
   1033000   946.66213      740.57119      54271.502      2.4178967     -48903.179    
   1034000   934.57848     -844.73346      54293.953      2.4168968     -48924.586    
   1035000   936.51067     -3440.9579      54077.604      2.4265662     -48912.954    
   1036000   918.43982      270.46783      54189.679      2.4215475     -48913.555    
   1037000   909.31435     -1567.1411      54381.652      2.4129992     -48926.482    
   1038000   930.88216      2.999627       54063.313      2.4272076     -48924.775    
   1039000   899.50364      468.74908      54030.895      2.4286639     -48933.537    
   1040000   908.76068      417.56881      54256.547      2.4185631     -48925.952    
   1041000   882.53374     -2129.0259      54200.205      2.4210773     -48937.777    
   1042000   897.39316      3377.6139      53784.329      2.4397977     -48938.568    
   1043000   882.56146      2000.5146      54109.931      2.4251164     -48932.621    
   1044000   882.54931     -1379.7762      54176.733      2.4221262     -48949.417    
   1045000   875.85116      341.87036      54154.262      2.4231312     -48938.323    
   1046000   885.79229      5437.3598      53861.523      2.436301      -48949.116    
   1047000   847.54531     -3752.2154      54258.941      2.4184564     -48946.155    
   1048000   868.86201      4858.2632      54155.545      2.4230738     -48968.405    
   1049000   870.82441      2600.2079      53677.124      2.4446706     -48957.15     
   1050000   852.6439      -956.63401      54084.601      2.4262523     -48969.584    
   1051000   846.03379      1012.6076      54079.682      2.4264729     -48965.302    
   1052000   839.30036     -3466.7466      54014.853      2.4293852     -48966.335    
   1053000   819.90379      1013.7648      53985.926      2.4306869     -48970.453    
   1054000   835.45014     -1458.4742      53914.031      2.4339283     -48984.105    
   1055000   825.86347      1963.852       54038.379      2.4283276     -48977.438    
   1056000   835.82849     -2562.7583      54327.259      2.4154152     -48982.065    
   1057000   825.22434      1702.8608      53893.979      2.4348339     -48985.788    
   1058000   819.83738      382.44747      53927.831      2.4333055     -48981.437    
   1059000   809.87104      3333.2429      53868.249      2.4359968     -48994.04     
   1060000   804.42877     -1209.4767      53973.28       2.4312564     -48984.347    
   1061000   801.79408     -2066.8693      53962.417      2.4317459     -48992.646    
   1062000   801.11146     -955.66955      54017.538      2.4292644     -48998.017    
   1063000   780.01186     -1518.9025      53963.378      2.4317026     -49003.421    
   1064000   775.31099      2216.8191      53791.142      2.4394887     -49011.152    
   1065000   774.53965     -1290.4644      53900.687      2.4345308     -49011.139    
   1066000   766.71926     -257.48143      53847.403      2.4369399     -48997.095    
   1067000   765.85844     -806.55518      53930.303      2.4331939     -49009.584    
   1068000   752.53198     -1105.9781      53994.417      2.4303047     -49012.999    
   1069000   754.92468     -1544.3148      53969.233      2.4314387     -49012.691    
   1070000   753.25316      1091.5682      53616.318      2.447443      -49022.293    
   1071000   748.07802     -1383.9257      54044.588      2.4280485     -49031.854    
   1072000   733.83268      701.52682      53954.535      2.4321011     -49023.116    
   1073000   743.1472      -108.74056      53813.749      2.4384639     -49036.087    
   1074000   725.7072      -455.85969      53954.772      2.4320904     -49038.78     
   1075000   718.80313      805.79852      53830.367      2.4377111     -49045.767    
   1076000   723.24731      1069.0839      53681.342      2.4444785     -49035.322    
   1077000   708.67996     -1931.0946      53938.082      2.432843      -49046.543    
   1078000   722.2337      -4980.8119      53762.455      2.4407904     -49046.542    
   1079000   697.04699      2561.0688      53700.205      2.4436198     -49048.198    
   1080000   697.68398      3962.8498      53714.904      2.4429511     -49049.24     
   1081000   707.73228      1709.6845      53812.975      2.438499      -49048.097    
   1082000   686.84767     -2229.5307      53671.054      2.444947      -49053.909    
   1083000   671.99106     -2622.0859      53846.83       2.4369658     -49058.984    
   1084000   676.45942     -682.61456      53763.725      2.4407328     -49060.009    
   1085000   679.58434      1430.01        53525.25       2.4516071     -49074.002    
   1086000   688.35735      2711.9253      53765.853      2.4406361     -49069.811    
   1087000   666.96941     -4357.1826      53841.352      2.4372137     -49075.462    
   1088000   676.27022      1825.1378      53522.01       2.4517555     -49079.344    
   1089000   664.85607      1783.5874      53602.209      2.4480872     -49078.317    
   1090000   650.71769      1130.4529      53762.656      2.4407813     -49082.411    
   1091000   651.30266     -721.12466      53733.606      2.4421009     -49075.709    
   1092000   655.5467       1135.3993      53662.03       2.4453582     -49089.794    
   1093000   627.58768      3097.4805      53483.74       2.4535099     -49094.511    
   1094000   634.01516      71.89486       53726.366      2.4424299     -49091.987    
   1095000   614.34884     -904.45632      53787.699      2.4396449     -49092.197    
   1096000   641.77716      1152.6977      53513.529      2.4521441     -49096.445    
   1097000   613.85989     -259.03027      53666.229      2.4451669     -49103.939    
   1098000   610.20076     -1976.9168      53748.819      2.4414096     -49102.401    
   1099000   616.95694      1404.5081      53446.384      2.4552247     -49102.366    
   1100000   598.93134     -1011.9241      53553.057      2.4503341     -49104.85     
   1101000   601.70037     -583.4222       53687.744      2.444187      -49108.073    
   1102000   582.38744      1539.7385      53486.739      2.4533723     -49110.332    
   1103000   582.3633      -192.67531      53556.961      2.4501555     -49116.611    
   1104000   576.95274      753.09645      53551.605      2.4504006     -49115.966    
   1105000   561.70196      1201.0416      53563.577      2.4498529     -49127.404    
   1106000   583.99295     -1449.3289      53595.79       2.4483804     -49131.566    
   1107000   589.2098      -2327.5295      53552.95       2.4503391     -49128.939    
   1108000   559.09883     -1636.8322      53479.452      2.4537066     -49129.106    
   1109000   553.76376      612.0787       53618.394      2.4473483     -49129.373    
   1110000   549.7144      -18.449963      53421.067      2.4563883     -49137.836    
   1111000   541.98601     -1370.8877      53602.532      2.4480725     -49136.741    
   1112000   551.08871     -1725.8755      53603.196      2.4480422     -49133.108    
   1113000   539.0449       844.18856      53326.597      2.4607399     -49150.991    
   1114000   535.64148      2306.6655      53395.034      2.4575859     -49148.507    
   1115000   511.06213     -3011.2293      53466.481      2.4543019     -49144.874    
   1116000   513.06097     -2863.8438      53522.562      2.4517303     -49149.876    
   1117000   519.2065      -2559.5585      53587.122      2.4487765     -49152.142    
   1118000   506.80913     -160.67628      53363.146      2.4590545     -49157.215    
   1119000   498.93375      611.36512      53523.267      2.4516979     -49161.84     
   1120000   497.7026      -754.85701      53465.566      2.4543439     -49164.929    
   1121000   493.76458      1022.5356      53388.742      2.4578756     -49159.843    
   1122000   488.27406      2153.3691      53354.493      2.4594533     -49171.608    
   1123000   485.67612      74.621154      53332.46       2.4604694     -49173.618    
   1124000   474.47933     -3222.7196      53583.955      2.4489212     -49177.626    
   1125000   485.08109      643.03768      53249.624      2.4642969     -49178.898    
   1126000   475.22402     -297.47718      53243.073      2.4646001     -49185.186    
   1127000   457.665       -732.52672      53459.189      2.4546367     -49186.553    
   1128000   459.44696     -301.68076      53339.447      2.4601471     -49188.112    
   1129000   464.76817     -1693.1139      53332.316      2.460476      -49191.173    
   1130000   453.58187      93.904902      53287.622      2.4625397     -49196.527    
   1131000   440.74566      1593.4271      53173.879      2.4678073     -49199.777    
   1132000   442.85792     -3085.0239      53497.976      2.452857      -49198.106    
   1133000   433.84375      1452.642       53179.861      2.4675297     -49204.878    
   1134000   443.25911      466.22502      53292.262      2.4623253     -49203.606    
   1135000   423.70992     -294.8992       53280.775      2.4628561     -49206.586    
   1136000   421.51729      923.47725      53225.077      2.4654334     -49213.868    
   1137000   419.03053     -1611.3219      53274.837      2.4631306     -49209.412    
   1138000   405.72325     -1780.4342      53242.519      2.4646258     -49209.265    
   1139000   399.75671      2867.4434      53066.088      2.47282       -49218.394    
   1140000   404.94723      494.8317       53340.304      2.4601076     -49224.966    
   1141000   398.26525     -379.45883      53195.061      2.4668246     -49227.389    
   1142000   387.69182      1923.8866      53060.602      2.4730757     -49227.975    
   1143000   384.5738      -1589.9673      53242.963      2.4646052     -49230.013    
   1144000   382.59691     -1873.259       53185.085      2.4672873     -49236.968    
   1145000   383.68819     -0.016627692    53159.514      2.4684741     -49239.508    
   1146000   372.53535      404.36331      53201.757      2.4665141     -49236.953    
   1147000   362.97661     -765.66697      53128.09       2.4699342     -49241.733    
   1148000   368.0806      -1232.1528      53160.841      2.4684125     -49245.625    
   1149000   355.9871       69.236963      53091.817      2.4716216     -49245.265    
   1150000   350.79418     -127.61486      53086.384      2.4718746     -49253.556    
   1151000   350.74305     -2754.696       53291.703      2.4623511     -49253.446    
   1152000   346.27116      1103.9961      52938.52       2.4787789     -49255.679    
   1153000   339.61262      1889.0843      53093.91       2.4715242     -49259.095    
   1154000   329.35706     -2299.0436      53171.033      2.4679393     -49261.692    
   1155000   322.01204      1150.4535      53011.768      2.4753539     -49266.756    
   1156000   320.86657      369.172        53054.565      2.4733571     -49270.968    
   1157000   309.85241     -910.22261      53121.133      2.4702576     -49272.829    
   1158000   307.9441       1163.8371      52993.894      2.4761887     -49277.138    
   1159000   306.08261     -1938.7524      52917.293      2.4797732     -49279.022    
   1160000   295.3396      -206.56138      52985.588      2.4765769     -49279.888    
Loop time of 2574.98 on 20 procs for 940000 steps with 4185 atoms

Performance: 31.540 ns/day, 0.761 hours/ns, 365.052 timesteps/s, 1.528 Matom-step/s
99.6% CPU use with 20 MPI tasks x 1 OpenMP threads

MPI task timing breakdown:
Section |  min time  |  avg time  |  max time  |%varavg| %total
---------------------------------------------------------------
Pair    | 1374.9     | 1496.2     | 1582.4     | 169.2 | 58.11
Kspace  | 653.9      | 744.15     | 867.92     | 242.6 | 28.90
Neigh   | 63.316     | 65.688     | 69.359     |  22.8 |  2.55
Comm    | 82.997     | 84.282     | 85.614     |   6.2 |  3.27
Output  | 0.15667    | 0.18441    | 0.35105    |   9.2 |  0.01
Modify  | 123.05     | 153.3      | 176.3      | 132.6 |  5.95
Other   |            | 31.16      |            |       |  1.21

Nlocal:         209.25 ave         226 max         195 min
Histogram: 1 1 3 3 3 5 2 1 0 1
Nghost:        4337.15 ave        4371 max        4302 min
Histogram: 1 1 3 1 2 4 4 2 1 1
Neighs:        59746.1 ave       68350 max       54017 min
Histogram: 2 2 4 5 1 3 0 1 1 1

Total # of neighbors = 1194921
Ave neighs/atom = 285.52473
Neighbor list builds = 37711
Dangerous builds = 0
unfix   2

# E. Relax with NVT and NVE (50ps Each)
# NVE allows the energy to fluctuate without a thermostat
print "--- RELAXING STRUCTURE WITH NVT AND NVE ---"
--- RELAXING STRUCTURE WITH NVT AND NVE ---
fix     3 all nvt temp 300.0 300.0 0.1
run     50000
PPPM initialization ...
  using 12-bit tables for long-range coulomb
  G vector (1/distance) = 0.29059751
  grid = 27 27 27
  stencil order = 5
  estimated absolute RMS force accuracy = 0.0012703227
  estimated relative force accuracy = 8.8219027e-05
  using double precision KISS FFT
  3d grid and FFT values/proc = 4800 1176
Generated 0 of 10 mixed pair_coeff terms from geometric mixing rule
Per MPI rank memory allocation (min/avg/max) = 5.317 | 5.336 | 5.35 Mbytes
   Step          Temp          Press          Volume        Density         PotEng    
   1160000   295.3396      -207.96136      52985.588      2.4765769     -49279.895    
   1161000   299.60222      130.78241      52985.588      2.4765769     -49277.488    
   1162000   294.54725      1336.6199      52985.588      2.4765769     -49283.295    
   1163000   301.4351      -907.94697      52985.588      2.4765769     -49278.846    
   1164000   299.11087     -1200.4432      52985.588      2.4765769     -49283.147    
   1165000   295.84701     -1439.9034      52985.588      2.4765769     -49278.609    
   1166000   306.27514     -950.28931      52985.588      2.4765769     -49278.614    
   1167000   303.18959      708.1898       52985.588      2.4765769     -49281.016    
   1168000   308.21144     -656.20541      52985.588      2.4765769     -49278.862    
   1169000   303.1469      -775.43969      52985.588      2.4765769     -49279.907    
   1170000   293.34554     -711.62351      52985.588      2.4765769     -49280.835    
   1171000   296.67471     -1590.6393      52985.588      2.4765769     -49275.976    
   1172000   296.90991     -284.56036      52985.588      2.4765769     -49280.973    
   1173000   298.96928      820.2939       52985.588      2.4765769     -49280.414    
   1174000   297.7018       661.09996      52985.588      2.4765769     -49273.853    
   1175000   301.12444      448.27583      52985.588      2.4765769     -49279.181    
   1176000   304.42812      1321.3908      52985.588      2.4765769     -49279.408    
   1177000   308.62848      2111.8437      52985.588      2.4765769     -49279.152    
   1178000   301.19017     -1213.2625      52985.588      2.4765769     -49280.769    
   1179000   302.67225      525.48195      52985.588      2.4765769     -49274.662    
   1180000   299.68341     -1131.3506      52985.588      2.4765769     -49281.261    
   1181000   292.34942      878.19986      52985.588      2.4765769     -49279.595    
   1182000   299.80195     -1078.3653      52985.588      2.4765769     -49278.655    
   1183000   302.49916     -777.38763      52985.588      2.4765769     -49277.878    
   1184000   295.3543       1947.9072      52985.588      2.4765769     -49275.374    
   1185000   294.83427      466.81734      52985.588      2.4765769     -49279.505    
   1186000   308.92495      109.99558      52985.588      2.4765769     -49279.167    
   1187000   305.47398     -492.93867      52985.588      2.4765769     -49280.432    
   1188000   297.43657      18.711507      52985.588      2.4765769     -49277.572    
   1189000   300.8932      -81.272306      52985.588      2.4765769     -49277.594    
   1190000   300.1032       390.57862      52985.588      2.4765769     -49281.09     
   1191000   301.85357      516.61057      52985.588      2.4765769     -49275.7      
   1192000   293.61484      1228.9811      52985.588      2.4765769     -49278.978    
   1193000   303.67262     -683.94045      52985.588      2.4765769     -49277.143    
   1194000   297.45897     -1472.1211      52985.588      2.4765769     -49280.873    
   1195000   300.99837     -292.72305      52985.588      2.4765769     -49277.393    
   1196000   295.31371      2813.0812      52985.588      2.4765769     -49277.035    
   1197000   293.98469     -967.75088      52985.588      2.4765769     -49278.733    
   1198000   300.08697     -168.92211      52985.588      2.4765769     -49281.245    
   1199000   300.64213     -977.03495      52985.588      2.4765769     -49278.415    
   1200000   295.24455      345.30436      52985.588      2.4765769     -49278.443    
   1201000   293.2043       2069.905       52985.588      2.4765769     -49279.124    
   1202000   301.92309      162.17429      52985.588      2.4765769     -49278.518    
   1203000   299.33365      171.18238      52985.588      2.4765769     -49282.313    
   1204000   304.43113     -1723.5078      52985.588      2.4765769     -49279.154    
   1205000   302.55892     -72.72542       52985.588      2.4765769     -49280.208    
   1206000   304.28197     -474.67619      52985.588      2.4765769     -49282.697    
   1207000   301.13798     -1197.0616      52985.588      2.4765769     -49280.256    
   1208000   296.86318      1220.8276      52985.588      2.4765769     -49275.145    
   1209000   298.54458      1498.2951      52985.588      2.4765769     -49281.436    
   1210000   303.14573      1816.9974      52985.588      2.4765769     -49279.814    
Loop time of 130.056 on 20 procs for 50000 steps with 4185 atoms

Performance: 33.217 ns/day, 0.723 hours/ns, 384.451 timesteps/s, 1.609 Matom-step/s
99.6% CPU use with 20 MPI tasks x 1 OpenMP threads

MPI task timing breakdown:
Section |  min time  |  avg time  |  max time  |%varavg| %total
---------------------------------------------------------------
Pair    | 75.756     | 84.847     | 95.276     |  60.6 | 65.24
Kspace  | 28.379     | 38.742     | 47.873     |  89.4 | 29.79
Neigh   | 0.81927    | 0.87599    | 0.96479    |   4.2 |  0.67
Comm    | 4.487      | 4.7479     | 5.1882     |   7.5 |  3.65
Output  | 0.0083641  | 0.0097753  | 0.01843    |   2.1 |  0.01
Modify  | 0.38498    | 0.43082    | 0.48196    |   4.0 |  0.33
Other   |            | 0.4018     |            |       |  0.31

Nlocal:         209.25 ave         228 max         196 min
Histogram: 2 1 1 6 4 3 2 0 0 1
Nghost:         4342.2 ave        4381 max        4297 min
Histogram: 2 0 3 1 2 1 5 3 1 2
Neighs:        59759.8 ave       69215 max       54054 min
Histogram: 2 4 2 5 2 1 2 1 0 1

Total # of neighbors = 1195196
Ave neighs/atom = 285.59044
Neighbor list builds = 481
Dangerous builds = 0
unfix   3
fix     4 all nve
run     50000
PPPM initialization ...
  using 12-bit tables for long-range coulomb
  G vector (1/distance) = 0.29059751
  grid = 27 27 27
  stencil order = 5
  estimated absolute RMS force accuracy = 0.0012703227
  estimated relative force accuracy = 8.8219027e-05
  using double precision KISS FFT
  3d grid and FFT values/proc = 4800 1176
Generated 0 of 10 mixed pair_coeff terms from geometric mixing rule
Per MPI rank memory allocation (min/avg/max) = 5.317 | 5.336 | 5.35 Mbytes
   Step          Temp          Press          Volume        Density         PotEng    
   1210000   303.14573      1816.9974      52985.588      2.4765769     -49279.814    
   1211000   295.93353     -1254.7813      52985.588      2.4765769     -49275.901    
   1212000   302.24752     -1368.1518      52985.588      2.4765769     -49279.365    
   1213000   302.64148     -1118.7592      52985.588      2.4765769     -49279.575    
   1214000   304.5835      -87.688243      52985.588      2.4765769     -49280.621    
   1215000   297.42985     -316.50717      52985.588      2.4765769     -49276.718    
   1216000   303.10516      1822.8264      52985.588      2.4765769     -49279.803    
   1217000   298.93783      2705.8404      52985.588      2.4765769     -49277.564    
   1218000   299.20853     -668.90832      52985.588      2.4765769     -49277.698    
   1219000   303.04112      415.78933      52985.588      2.4765769     -49279.745    
   1220000   300.02436     -2063.2158      52985.588      2.4765769     -49278.123    
   1221000   300.60795      2218.4389      52985.588      2.4765769     -49278.465    
   1222000   295.80744     -49.651331      52985.588      2.4765769     -49275.831    
   1223000   299.73398     -1673.7407      52985.588      2.4765769     -49277.981    
   1224000   295.31968     -309.30005      52985.588      2.4765769     -49275.562    
   1225000   306.3938       919.97258      52985.588      2.4765769     -49281.589    
   1226000   306.92408     -2077.4997      52985.588      2.4765769     -49281.873    
   1227000   303.67377      2070.0894      52985.588      2.4765769     -49280.127    
   1228000   299.5348      -1019.3481      52985.588      2.4765769     -49277.869    
   1229000   303.91594      878.90331      52985.588      2.4765769     -49280.249    
   1230000   304.99157      898.61561      52985.588      2.4765769     -49280.856    
   1231000   297.72219     -377.32748      52985.588      2.4765769     -49276.869    
   1232000   301.92985     -174.85298      52985.588      2.4765769     -49279.18     
   1233000   302.33779     -869.86379      52985.588      2.4765769     -49279.407    
   1234000   297.05851     -209.92392      52985.588      2.4765769     -49276.536    
   1235000   303.96978      85.742591      52985.588      2.4765769     -49280.309    
   1236000   304.05396     -631.21098      52985.588      2.4765769     -49280.35     
   1237000   303.68679      1295.8827      52985.588      2.4765769     -49280.134    
   1238000   299.3136       1627.363       52985.588      2.4765769     -49277.734    
   1239000   301.86446      682.00703      52985.588      2.4765769     -49279.136    
   1240000   298.13013     -353.1767       52985.588      2.4765769     -49277.129    
   1241000   302.01779     -947.75875      52985.588      2.4765769     -49279.196    
   1242000   297.37297     -1470.3109      52985.588      2.4765769     -49276.731    
   1243000   296.91559     -154.84623      52985.588      2.4765769     -49276.443    
   1244000   298.84407     -1669.6578      52985.588      2.4765769     -49277.513    
   1245000   305.64752      1573.446       52985.588      2.4765769     -49281.202    
   1246000   298.74298      1347.5644      52985.588      2.4765769     -49277.427    
   1247000   305.36671     -137.20924      52985.588      2.4765769     -49281.017    
   1248000   298.7848       1301.591       52985.588      2.4765769     -49277.45     
   1249000   299.6254       3.199596       52985.588      2.4765769     -49277.881    
   1250000   299.55154      1542.6359      52985.588      2.4765769     -49277.888    
   1251000   304.93383     -2507.541       52985.588      2.4765769     -49280.779    
   1252000   297.20885     -69.798164      52985.588      2.4765769     -49276.558    
   1253000   299.73347     -216.16866      52985.588      2.4765769     -49277.999    
   1254000   305.10479      1361.282       52985.588      2.4765769     -49280.888    
   1255000   305.38669     -379.67735      52985.588      2.4765769     -49281.057    
   1256000   301.44838     -1394.0537      52985.588      2.4765769     -49278.94     
   1257000   303.47011      2838.7869      52985.588      2.4765769     -49279.991    
   1258000   303.55714      2479.3527      52985.588      2.4765769     -49280.022    
   1259000   298.29294     -668.13162      52985.588      2.4765769     -49277.173    
   1260000   300.04629      3331.8662      52985.588      2.4765769     -49278.128    
Loop time of 129.913 on 20 procs for 50000 steps with 4185 atoms

Performance: 33.253 ns/day, 0.722 hours/ns, 384.874 timesteps/s, 1.611 Matom-step/s
99.6% CPU use with 20 MPI tasks x 1 OpenMP threads

MPI task timing breakdown:
Section |  min time  |  avg time  |  max time  |%varavg| %total
---------------------------------------------------------------
Pair    | 75.652     | 85.066     | 95.531     |  62.1 | 65.48
Kspace  | 28.281     | 38.643     | 48.067     |  91.7 | 29.75
Neigh   | 0.79884    | 0.86414    | 0.95133    |   4.3 |  0.67
Comm    | 4.4826     | 4.7046     | 5.1172     |   6.8 |  3.62
Output  | 0.0084028  | 0.0097586  | 0.018386   |   2.1 |  0.01
Modify  | 0.11525    | 0.12495    | 0.13208    |   1.1 |  0.10
Other   |            | 0.4998     |            |       |  0.38

Nlocal:         209.25 ave         227 max         191 min
Histogram: 1 1 1 1 5 7 1 1 1 1
Nghost:        4334.55 ave        4373 max        4303 min
Histogram: 1 1 3 3 4 4 1 2 0 1
Neighs:        59764.1 ave       68685 max       53804 min
Histogram: 4 0 3 5 2 3 0 1 1 1

Total # of neighbors = 1195282
Ave neighs/atom = 285.61099
Neighbor list builds = 475
Dangerous builds = 0
unfix   4

# ------------------------------------------------------------------
# 5. FINAL OUTPUT
# ------------------------------------------------------------------
write_data      AmorphousBorosilicateGlassCube.data
System init for write_data ...
PPPM initialization ...
  using 12-bit tables for long-range coulomb
  G vector (1/distance) = 0.29059751
  grid = 27 27 27
  stencil order = 5
  estimated absolute RMS force accuracy = 0.0012703227
  estimated relative force accuracy = 8.8219027e-05
  using double precision KISS FFT
  3d grid and FFT values/proc = 4800 1176
Generated 0 of 10 mixed pair_coeff terms from geometric mixing rule
WARNING: Not all mixed pair coeffs generated from mixing. Use write_data with 'pair ij' option to store all pair coeffs. (src/write_data.cpp:364)
print "--- SIMULATION COMPLETE ---"
--- SIMULATION COMPLETE ---
Total wall time: 0:57:12
